%chk=ts_freq.chk
%nprocshared=4
#P wB97X/6-31G(d) opt(ts,calcall,noeigentest,nomicro,maxcycles=150) freq

GSM eqV2 pure Gaussian calcall TS opt+freq: rxn5018

0 1
C   2.23462200  0.53908300 -1.32637800
C   1.56934800 -0.27703000  0.41326600
O   1.74529900  1.28575100  0.13596500
C   0.31045000  1.44084500  0.29558000
C   0.04375300 -0.05434100  0.52264400
C  -0.56627000 -0.37909600  1.88491700
C  -0.77187700 -0.72523600 -0.58463300
H   3.29104200  0.37875100 -1.14037000
H   1.80114600 -0.29336800 -1.87516200
H   2.07104200  1.47479200 -1.89265100
H   2.04315500 -0.47738000  1.38552800
H  -0.14196700  1.91661900 -0.58441500
H   0.15093300  2.07482100  1.17484100
H  -0.04235200  0.14932700  2.68989600
H  -0.49033100 -1.45438800  2.08698100
H  -1.62950600 -0.10708900  1.93043300
H  -0.71530200 -1.81578800 -0.48575200
H  -0.40347000 -0.46386900 -1.58252200
H  -1.82989200 -0.43594700 -0.52958000

