%chk=ts_freq.chk
%nprocshared=4
#P wB97X/6-31G(d) opt(ts,calcall,noeigentest,nomicro,maxcycles=150) freq

ReactOT exact pure Gaussian calcall TS opt+freq: rxn3214

0 1
O   2.04786630  0.89462334 -0.11622894
C   2.06828240 -0.42101902 -0.06657925
C   0.80975795 -1.03404200 -0.43986842
C  -0.50792490  0.15015659  0.63014820
C  -1.81300330  0.01845768 -0.19277681
C  -1.36485270  1.37738470  0.25290927
H   0.54515654  0.65729830  0.39164275
H   2.59289770 -0.88239370  0.78479385
H   2.49510430 -0.99250317 -0.99927140
H   0.57865120 -2.06493100 -0.15963432
H   0.37758370 -0.72371405 -1.37711690
H  -0.60897950 -0.22394570  1.64725510
H  -1.75864100 -0.20829101 -1.24568820
H  -2.63862510 -0.46309003  0.31234837
H  -0.95884340  2.03926350 -0.50036854
H  -1.86443020  1.87674580  1.07843530

