%chk=ts_freq.chk
%mem=6GB
%nprocshared=4
#P Opt=(TS,CalcAll,NoEigenTest,NoMicro,MaxCycles=150) Freq External='../../../../../production/external/horm.sh'

External--CalcAll initial TS guess: rxn9465

0 1
O   2.68240120  0.43374634  0.48766148
C   1.94869970 -0.62472390  0.84742886
C   0.28773170 -0.40290716 -0.48459095
C  -1.07403790 -1.03539630 -0.14896053
C  -1.69429090  0.37272090 -0.35928714
C  -0.28430283  0.98326117 -0.18920836
H   2.23792360  1.27170690  0.69778025
H   1.29221560 -1.14167490 -0.04060144
H   1.21240850 -0.41399452  1.63854750
H   0.59627455 -0.51350826 -1.51514300
H  -1.13938020 -1.33773830  0.90169805
H  -1.40395260 -1.86631130 -0.78829780
H  -2.07563040  0.50331200 -1.38278880
H  -2.47860340  0.68313030  0.33849900
H  -0.12788650  1.29069390  0.85380280
H   0.02042931  1.79768310 -0.85653996

