%chk=ts_freq.chk
%nprocshared=4
#P Opt=(TS,CalcAll,NoEigenTest,NoMicro,MaxCycles=150) Freq External='../../../../../production/external/horm.sh'

External--CalcAll initial TS guess: rxn7071

0 1
O  -2.33120350 -0.18751237  0.12742627
C  -1.15407590 -0.10782854  0.04920056
C  -0.15721690 -1.12357620 -0.51655100
C   1.16400040 -0.49167874 -0.27977327
C   1.91942470  0.38309062  0.05950167
C  -0.35121673  1.09721170  0.50601490
N   0.18923630  2.05823680  0.91990936
H  -0.38039708 -1.27405550 -1.57855740
H  -0.28687468 -2.08401400  0.00463799
H   1.38832350  1.73012600  0.70819090

