%chk=ts_freq.chk
%nprocshared=4
#P wB97X/6-31G(d) opt(ts,calcfc,noeigentest,nomicro,maxcycles=150) freq

ReactOT exact pure Gaussian calcfc TS opt+freq: rxn6802

0 1
C   2.10639240  0.17338930 -0.27903965
C   0.68975645  0.05953571  0.12697926
O  -0.32342930  1.32658550 -1.01809430
C  -1.27428250  0.88281720 -0.24460472
C  -1.62821500 -0.59405810 -0.41497207
C  -0.34475994 -0.98999375  0.28864872
C  -0.18712015  0.21701871  1.17409900
H   2.53432230  1.11670410  0.05514982
H   2.64808030 -0.63177747  0.23421493
H   2.19957200  0.06523099 -1.35695300
H  -2.04781940  1.60768190  0.05889160
H  -2.49316000 -0.90194976  0.16143419
H  -1.72489210 -0.85693294 -1.47950240
H  -0.04420646 -2.01904900  0.48396984
H  -0.11023869  0.54479770  2.20977880

