%chk=ts_freq.chk
%nprocshared=4
#P wB97X/6-31G(d) opt(ts,calcall,noeigentest,nomicro,maxcycles=150) freq

ReactOT exact pure Gaussian calcall TS opt+freq: rxn5043

0 1
C  -1.92026070 -0.47693703 -0.42883325
C  -0.39466184 -0.55414146 -0.44959718
O   0.20491223  0.47960216 -1.19175930
C   0.20517166 -0.47566897  0.98426970
N   1.59392460 -0.04369421  0.81214327
C   1.62504850  1.02567980 -0.06692942
O   0.90741146  2.09392800  0.17660578
H  -2.34521400 -1.29400240  0.15702666
H  -2.31084250 -0.52715780 -1.45009710
H  -2.22779680  0.48068684 -0.00362579
H  -0.08083005 -1.51448560 -0.88613390
H   0.14236980  1.60905580 -0.58971775
H  -0.30259478  0.30524868  1.56832840
H   0.16652599 -1.41369960  1.53255950
H   2.20043300 -0.80566055  0.49885458
H   2.53640320  1.11124630 -0.66309416

