%chk=ts_freq.chk
%nprocshared=4
#P wB97X/6-31G(d) opt(ts,calcall,noeigentest,nomicro,maxcycles=150) freq

ReactOT exact pure Gaussian calcall TS opt+freq: rxn6930

0 1
O   2.15577130 -0.41460130  0.60365176
C   0.92099930 -0.52614190  0.26990527
C   1.17387750  0.60093725 -0.56931170
C   0.08159243  0.86738970  0.36265093
N  -1.18323140  0.29765922  0.05194621
C  -1.09647500 -1.05028510 -0.08021513
N   0.05405348 -1.61531040  0.11538155
H   1.82610300  0.97104670 -1.33051730
H   0.07879566  1.68685630  1.08340920
H  -2.02603650  0.80999565 -0.16929556
H  -1.98544970 -1.62754600 -0.33760530

