%chk=ts_freq.chk
%nprocshared=4
#P wB97X/6-31G(d) opt(ts,calcfc,noeigentest,nomicro,maxcycles=150) freq

GSM eqV2 pure Gaussian calcfc TS opt+freq: rxn7210

0 1
C  -1.46582400 -1.26819700 -0.18268500
C  -1.07642400  0.01145000 -0.87693500
C  -0.02637700 -0.86793000 -0.26441100
C   0.97829800 -1.65515700 -1.07967500
C   1.98587800 -1.47788000  0.77910200
C   2.13375200  0.00494200  0.63370800
C   0.78481900 -0.55513700  0.94923800
H  -1.80205700 -2.10400300 -0.79047500
H  -1.95595400 -1.19251200  0.78471000
H  -1.14442300  0.04949300 -1.96144000
H  -1.30304100  0.95017600 -0.37913400
H   0.59285400 -2.55382000 -1.56676200
H   1.59221500 -1.06509600 -1.76178700
H   1.81050600 -2.29655900 -0.21571100
H   2.31985300  0.50028100 -0.31672900
H   2.69069000  0.43276500  1.46575900
H   0.31433400 -0.40505600  1.92126100

