%chk=ts_freq.chk
%nprocshared=4
#P wB97X/6-31G(d) opt(ts,calcall,noeigentest,nomicro,maxcycles=150) freq

ReactOT exact pure Gaussian calcall TS opt+freq: rxn2226

0 1
O   2.09498120  0.68437135  0.06568237
C   0.88722940  0.54578920  0.66933745
C  -0.24274139  1.28847380  0.37002970
C  -0.87812760 -0.71875010 -0.15369731
O  -1.46118870 -0.44468814 -1.34977880
C   0.28998712 -1.48481760 -0.14168766
H   1.94806770  0.96794635 -0.84154886
H   1.03716740  0.11902032  1.66420380
H  -0.27483964  1.83035210 -0.56195190
H  -0.90561163  1.61068790  1.17515000
H  -1.55465760 -0.76158510  0.70602430
H  -2.18043110  0.18702786 -1.20684460
H   0.79509443 -1.65065150 -1.08149540
H   0.44507045 -2.17317680  0.68657690

