%chk=ts_freq.chk
%nprocshared=4
#P wB97X/6-31G(d) opt(ts,calcfc,noeigentest,nomicro,maxcycles=150) freq

ReactOT exact pure Gaussian calcfc TS opt+freq: rxn6281

0 1
N   2.59894250  0.53497756  0.12430531
C   1.38889310  0.35695228 -0.23349084
C   0.80193690 -1.05362310 -0.03158045
C  -0.65292580 -1.14754660  0.44754530
C  -1.48274790 -0.04543562 -0.21835600
C  -1.25284800  1.23226310  0.29224265
O   0.57141995  1.24639070 -0.81228095
H   2.85032580  1.49043760 -0.16375127
H   0.85371640 -1.51359330 -1.02775060
H   1.49952190 -1.59062080  0.61568730
H  -0.68436706 -1.04557010  1.54060230
H  -1.05590700 -2.13892750  0.21052161
H  -0.65792733  0.41534647 -1.05804200
H  -2.43740530 -0.26061544 -0.68635327
H  -0.61845315  1.41367110  1.15612580
H  -1.72217510  2.10589360 -0.15542490

