%chk=ts_freq.chk
%nprocshared=4
#P wB97X/6-31G(d) opt(ts,calcall,noeigentest,nomicro,maxcycles=150) freq

ReactOT exact pure Gaussian calcall TS opt+freq: rxn3702

0 1
O   0.86875594  2.20077090 -0.45562503
C   0.39227712  1.11016040 -0.17715986
C  -0.98903245  0.63514820 -0.13765751
C  -0.93256230 -0.80282840 -0.35446662
O   0.21972659 -1.02209440  0.74622840
C   1.25252340 -0.09779970  0.25015310
H  -1.85212150  1.25310130 -0.31778288
H  -0.44692704 -0.15360774  1.16094960
H  -1.76997760 -1.41189940 -0.02322693
H  -0.44754004 -1.25163830 -1.23331330
H   1.79807110 -0.56793620 -0.55758310
H   1.90680670  0.10862333  1.09948420

