%chk=ts_freq.chk
%nprocshared=4
#P Opt=(TS,CalcAll,NoEigenTest,NoMicro,MaxCycles=150) Freq External='../../../../../production/external/horm.sh'

External--CalcAll initial TS guess: rxn2088

0 1
C  -1.06583100 -0.83496730 -1.22278110
C  -0.91716987 -0.28626427  0.16802233
C   0.44635493 -0.09322260  0.86360025
C   1.75667270 -0.44009116  0.21668987
C  -0.30103323  1.06155490  0.29650520
O   0.03213191  1.95599770 -0.60080945
H  -0.39836910 -0.30263823 -1.90066950
H  -2.09137000 -0.70436690 -1.58274470
H  -0.84935004 -1.90340770 -1.25599620
H  -1.71176670 -0.55610895  0.86452230
H   0.39684266 -0.25554540  1.94023250
H   2.59276200 -0.04182690  0.79854720
H   1.89724500 -1.52078070  0.15517750
H   1.79733440 -0.00934040 -0.78399870
H  -0.94256103  1.68594190  1.38001760
H  -0.64189225  2.24506600  0.66368467

