%chk=ts_freq.chk
%nprocshared=4
#P Opt=(TS,CalcAll,NoEigenTest,NoMicro,MaxCycles=150) Freq External='../../../../../production/external/horm.sh'

External--CalcAll initial TS guess: rxn1318

0 1
O   0.01801922  1.75221510  1.03707990
C   0.45401612  0.72979677  0.25452232
C   1.03618310 -1.50792880  0.09654267
O   0.03751750 -1.21357210 -0.83921033
C  -0.59538800 -0.09597584 -0.40585697
N  -1.82616130  0.20165645 -0.43030027
H  -0.91858834  1.57447990  1.21995090
H   1.26425660  1.05954750 -0.41182880
H   1.94913670 -1.62127140 -0.50199825
H   0.96796950 -0.34417802  0.83994090
H  -2.38696120 -0.53476960 -0.85884210

