%chk=ts_freq.chk
%nprocshared=4
#P Opt=(TS,CalcAll,NoEigenTest,NoMicro,MaxCycles=150) Freq External='../../../../../production/external/horm.sh'

External--CalcAll initial TS guess: rxn288

0 1
C  -1.32626400  0.84110340  0.00994049
C  -0.94661260 -0.37565902  0.58736440
O  -0.35194945 -1.26982340 -1.06015420
C   0.33408308 -0.96156360  0.10845137
C   1.48674350 -0.05293457  0.00325842
C   2.43552640  0.67083395 -0.10453509
H  -0.96660750  0.02829413 -0.99028200
H  -0.57053360  1.62894150 -0.02483280
H  -2.36378500  1.13442430  0.01299472
H  -1.65150360 -1.07880200  1.02103870
H   0.64093400 -1.87062470  0.66336120
H   3.27996900  1.30580990 -0.22660507

