%chk=ts_freq.chk
%nprocshared=4
#P wB97X/6-31G(d) opt(ts,calcall,noeigentest,nomicro,maxcycles=150) freq

GSM eqV2 pure Gaussian calcall TS opt+freq: rxn8315

0 1
C   2.24486700 -0.64696000 -0.10263000
C   0.90966400 -0.00800700 -0.32728100
C  -0.16546400 -0.51746700 -1.04492900
C  -1.22062300  0.41033300 -0.84804600
N  -2.54378500  0.49057300 -0.81344800
C  -0.72271600  1.57148300 -0.12131000
N   0.61101100  1.18172100  0.24278600
H   2.50751500 -0.66095000  0.95939100
H   2.25587500 -1.66735700 -0.49231300
H   3.02652900 -0.09088100 -0.63597800
H  -0.20891100 -1.50033500 -1.49531600
H  -2.15590000  1.30991800  0.18734800
H  -3.13153400 -0.29920900 -1.04890900
H  -0.78775100  2.53916500 -0.62221000
H   1.30842600  1.80293300  0.61824900

