%chk=ts_freq.chk
%nprocshared=4
#P wB97X/6-31G(d) opt(ts,calcall,noeigentest,nomicro,maxcycles=150) freq

ReactOT exact pure Gaussian calcall TS opt+freq: rxn4917

0 1
C   2.80676440 -0.38275620  0.26761308
O   1.59567420  0.19688421 -0.13313840
C   0.56817895 -0.00857919  0.79020005
C  -1.16993090  0.24554290 -0.88983965
C  -2.53181770 -0.23977864 -0.99539924
C  -0.78099614  0.80167097  0.37735686
O  -1.62490090  0.83552300  1.32387720
H   3.13060950 -0.00190937  1.24799880
H   3.54872900 -0.17087647 -0.49718535
H   2.70156120 -1.48543900  0.33329490
H   0.81904370  0.37952068  1.77811790
H   0.32214415 -1.09808500  0.83125573
H  -0.42694122  0.15929833 -1.70114660
H  -3.20519690  0.60025465 -0.76856970
H  -2.80083820 -0.73629060 -1.91692540
H  -2.68938420 -0.85094080 -0.08108314
H  -0.26270038  1.75596060  0.03357292

