%chk=ts_freq.chk
%nprocshared=4
#P Opt=(TS,CalcAll,NoEigenTest,NoMicro,MaxCycles=150) Freq External='../../../../../production/external/horm.sh'

External--CalcAll initial TS guess: rxn6227

0 1
C  -1.98880310 -0.15374763  0.01857721
C  -0.50105447 -0.17962270  0.10792644
N   0.15925041 -1.07461520  1.06589450
C   0.36130320  0.26787147  1.28734670
C   1.72649930  0.49261063 -0.34008482
C   0.40405837  0.24996546 -1.00040410
O   0.05082573  0.61522514 -2.10365700
H  -2.31937580  0.76425254 -0.49119400
H  -2.44942710 -0.22333609  1.00357030
H  -2.33560540 -0.98761400 -0.60867906
H   0.91198534 -1.69115660  0.76431420
H   1.33712350  0.88956220  1.18543780
H   2.40839150 -0.33849955 -0.14156838
H   2.23482870  1.36910400 -0.74747990

