%chk=ts_freq.chk
%nprocshared=4
#P wB97X/6-31G(d) opt(ts,calcall,noeigentest,nomicro,maxcycles=150) freq

ReactOT exact pure Gaussian calcall TS opt+freq: rxn6253

0 1
C  -1.04021350 -0.84360510  0.70801170
C  -0.32209975  0.00501175 -1.28281470
C  -0.04686846  1.21644510 -0.45216814
N   0.46641546  0.40962043  0.68198425
C   1.40683230 -0.50833255  0.05952258
O   2.30491260 -1.05858200  0.64934450
O   0.97976613 -0.68244300 -1.16788380
H  -0.84632040 -0.96155095  1.78492990
H  -0.99608910 -1.80927600  0.22347303
H  -1.99657900 -0.34452963  0.54113650
H  -0.55461204  0.08611242 -2.33749800
H  -0.93043880  1.77249180 -0.14192545
H   0.74440030  1.89945730 -0.80620930
H   0.83089400  0.81918000  1.54009710

