%chk=ts_freq.chk
%nprocshared=4
#P wB97X/6-31G(d) opt(ts,calcfc,noeigentest,nomicro,maxcycles=150) freq

GSM eqV2 pure Gaussian calcfc TS opt+freq: rxn2417

0 1
C   1.39435000  0.01679000  0.25860100
C  -0.09705800  1.26207300 -1.17276600
C  -0.87820700  0.02514900 -1.44187700
C  -1.27017800  0.28254900  0.02343100
O  -0.80075600  1.63111300 -0.13038900
H   1.77078100  0.99278900  0.57590500
H   1.58398100 -0.67144600  1.09500600
H   1.98510300 -0.33025400 -0.59476500
H   0.63995100  1.89553600 -1.64914100
H  -1.69609600  0.10202700 -2.15901100
H  -0.24971600 -0.84689600 -1.63074500
H   0.00924300 -0.15430000  0.43403200
H  -2.29171100  0.26899800  0.40400500

