%chk=ts_freq.chk
%nprocshared=4
#P wB97X/6-31G(d) opt(ts,calcall,noeigentest,nomicro,maxcycles=150) freq

ReactOT exact pure Gaussian calcall TS opt+freq: rxn2961

0 1
N  -1.29622830  1.53743860  0.45418460
C  -0.59624540  0.48287293  0.25290954
C  -0.64664990 -0.96151860  0.21307120
N   0.62257370 -1.49846910  0.30751770
C   1.45139190 -0.55127580  0.00660017
N   0.69134426  0.56639636 -0.42260018
H  -2.23855640  1.29631140  0.73861754
H  -1.51263750 -1.54356480  0.53054890
H  -0.05719108 -0.11522073 -1.21179090
H   2.48817660 -0.69626030 -0.28077033
H   1.09402200  1.48329000 -0.58828810

