%chk=ts_freq.chk
%nprocshared=4
#P wB97X/6-31G(d) opt(ts,calcall,noeigentest,nomicro,maxcycles=150) freq

ReactOT exact pure Gaussian calcall TS opt+freq: rxn1319

0 1
O   0.28170455  1.31877020  1.20019330
C   0.68544300  0.64654820  0.14519547
C   1.17687950 -0.87391970  0.18066186
O  -0.10282180 -1.32471670 -0.45427483
C  -0.54742870 -0.07593097 -0.41986180
N  -1.73181350  0.42483820 -0.40229740
H  -1.63385980  1.30663840  0.13015866
H   1.23688710  1.17633210 -0.67466900
H   2.01486920 -1.20662500 -0.43302658
H   1.19668630 -1.24880650  1.20394860
H  -2.57654570 -0.14312819 -0.47602826

