%chk=ts_freq.chk
%nprocshared=4
#P wB97X/6-31G(d) opt(ts,calcfc,noeigentest,nomicro,maxcycles=150) freq

ReactOT exact pure Gaussian calcfc TS opt+freq: rxn123

0 1
O  -0.40700500  2.35978460  0.52306110
C  -0.14615430  1.21740210  0.23075160
C  -0.95120880 -0.07344902  0.05792360
C   0.41537043 -1.00203690  0.02239306
O   0.73795164 -1.45195010 -1.12269520
C   1.02326890  0.41272690  0.00350586
H  -1.43670420 -0.14221352 -0.91662180
H  -1.58634470 -0.30400476  0.90625700
H   0.48690990 -1.59492990  0.96293580
H   1.86391600  0.57867060 -0.66751100

