%chk=ts_freq.chk
%nprocshared=4
#P Opt=(TS,CalcAll,NoEigenTest,NoMicro,MaxCycles=150) Freq External='../../../../../production/external/horm.sh'

External--CalcAll initial TS guess: rxn9298

0 1
C   1.87217600  0.16090200 -0.86253000
O   0.62671100  0.66320100 -0.57447000
C  -0.32015900  0.30724900 -1.39405700
C   0.31424600 -2.00072100 -1.38024800
C  -1.72364600  0.48006200 -0.92353400
O  -2.29293000  1.71873800 -1.31911000
H   2.19333500  0.34820700 -1.89208200
H   2.58627100  0.46586700 -0.10097000
H   1.24039700 -1.11891200 -1.00616300
H  -0.09642600  0.29840600 -2.45960700
H   1.07024100 -2.77531700 -1.56771200
H  -0.33183200 -1.98159400 -2.26094800
H  -0.27915500 -2.31172200 -0.51433300
H  -2.34667200 -0.29382100 -1.38317100
H  -1.75271000  0.34135900  0.16633500
H  -1.80206300  2.41749600 -0.86839900

