%chk=ts_freq.chk
%nprocshared=4
#P wB97X/6-31G(d) opt(ts,calcfc,noeigentest,nomicro,maxcycles=150) freq

ReactOT exact pure Gaussian calcfc TS opt+freq: rxn8259

0 1
C   1.61472830  0.61351454 -0.32664105
C   0.20141663 -0.24988653  0.62738160
O   0.72007920 -0.63550810  1.78718860
C  -1.02917520  0.68131020  0.50851256
C  -1.65548620 -0.36228000 -0.42190713
O  -0.81096790 -0.53320660 -1.54176990
C  -0.46123190 -1.23496540 -0.36548790
H   1.09622650  0.57846165 -1.27615270
H   1.72323350  1.63324560  0.02310801
H   2.59527850  0.11288793 -0.44750303
H   1.47810110 -0.06673764  0.81022143
H  -1.50103390  0.73385850  1.49297770
H  -0.87569904  1.67951710  0.08487763
H  -2.70796200 -0.62922347 -0.54837024
H  -0.38750750 -2.32098800 -0.40643580

