%chk=ts_freq.chk
%nprocshared=4
#P wB97X/6-31G(d) opt(ts,calcfc,noeigentest,nomicro,maxcycles=150) freq

GSM eqV2 pure Gaussian calcfc TS opt+freq: rxn1239

0 1
N   2.03399600 -0.21371300  0.58310500
C   0.89416300  0.25431300  0.29942600
C  -0.42673000 -0.36776200  0.40586800
C  -1.23658900  0.34100900 -0.54641700
C  -0.58280300  1.67698800 -0.75585400
O   0.76063200  1.49241000 -0.36677100
H   2.75394700  0.47462200  0.35831900
H  -0.68044400 -0.99601700 -1.07299200
H  -0.81414900 -0.69603100  1.36252600
H  -2.31489900  0.19927000 -0.54509100
H  -0.96914900 -0.46198600 -1.80600600
H  -1.10659800  2.34475700 -0.05217600
H  -0.63413800  2.10568000 -1.75974700

