%chk=ts_freq.chk
%nprocshared=4
#P wB97X/6-31G(d) opt(ts,calcall,noeigentest,nomicro,maxcycles=150) freq

ReactOT exact pure Gaussian calcall TS opt+freq: rxn5503

0 1
C  -2.38894870  0.09386273 -0.15379798
N  -0.96482820 -0.07665680  0.05557838
C  -0.36432860 -0.86277074  0.94724184
N   0.94765675 -0.75654787  0.77621620
C   1.22824280  0.15227416 -0.21638732
C   2.70112060  0.23013417 -0.25343576
C   0.02863313  0.56425510 -0.70512617
H  -2.65521400 -0.14688821 -1.18767750
H  -2.94392970 -0.56911254  0.51546710
H  -2.69783070  1.12831210  0.04342177
H  -0.89054900 -1.48979190  1.66352510
H   3.04456570  1.09082220  0.33424470
H   2.07038570 -0.96113986  0.92103404
H   3.12991550  0.33844674 -1.26095570
H  -0.24489084  1.26480080 -1.47934880

