%chk=ts_freq.chk
%nprocshared=4
#P wB97X/6-31G(d) opt(ts,calcfc,noeigentest,nomicro,maxcycles=150) freq

ReactOT exact pure Gaussian calcfc TS opt+freq: rxn2983

0 1
C  -1.17699230 -0.78736770  0.05365777
C  -0.16856235  0.78070930  0.58314866
C   1.26125360  0.40174535  0.65478337
C   0.65524520 -0.64854634 -0.22088099
C  -0.44968462  1.70540520 -0.48461887
N  -0.75141275  2.51735070 -1.28168330
H  -1.33594130 -1.27195180  1.01799570
H  -1.98713760 -0.08905817 -0.15386993
H  -1.21180160 -1.52431240 -0.74679875
H   1.62713360  0.05316178  1.61648250
H   1.96656000  1.04230260  0.12273493
H   0.78926146 -1.66604550  0.13102712
H   0.78207890 -0.51339320 -1.29197820

