%chk=ts_freq.chk
%nprocshared=4
#P Opt=(TS,CalcAll,NoEigenTest,NoMicro,MaxCycles=150) Freq External='../../../../../production/external/horm.sh'

External--CalcAll initial TS guess: rxn4887

0 1
C   1.63332800 -0.14737387  0.53011817
C   0.77987790 -0.43453553 -0.67405784
O   0.00682448 -1.66671090 -0.63548960
C  -0.91191006 -0.72736704 -0.22180225
N  -1.42073170 -0.64017080  1.00126170
C  -0.80008190  0.57258180 -0.90730155
N  -1.07064690  1.56032060 -0.03041783
H   1.04769180 -0.15133521  1.44004620
H   2.09033000  0.84436940  0.37807778
H   2.43414900 -0.89816827  0.58735270
H   1.28672600 -0.30279660 -1.62835240
H  -1.24839930 -1.44546410  1.60652580
H  -0.82824420  0.61466750 -1.99722960
H  -1.44464970  2.38528200 -0.50700486
H  -1.55426350  0.43670070  1.05827370

