%chk=ts_freq.chk
%nprocshared=4
#P wB97X/6-31G(d) opt(ts,calcall,noeigentest,nomicro,maxcycles=150) freq

ReactOT exact pure Gaussian calcall TS opt+freq: rxn6983

0 1
C  -1.82044510 -1.12305200  0.21567771
C  -1.04259170 -0.02759162 -0.39042896
C  -0.04358228  0.60096730  0.40197718
O   0.26564923  0.15129451  1.55624870
C   1.22706950  0.80366180 -0.58066470
O   1.12453110  1.46923290 -1.58350120
N   2.32586500  0.22224910 -0.08512064
H  -1.07619390 -1.86734810  0.55536634
H  -2.21274970 -0.75647280  1.17274340
H  -2.57257410 -1.58641530 -0.39723050
H  -1.23661800  0.34796366 -1.40416260
H  -0.37737262  1.68727060  0.31868815
H   2.22556470 -0.24974962  0.78477580
H   3.21344760  0.32798958 -0.56436860

