%chk=ts_freq.chk
%nprocshared=4
#P wB97X/6-31G(d) opt(ts,calcall,noeigentest,nomicro,maxcycles=150) freq

ReactOT exact pure Gaussian calcall TS opt+freq: rxn1337

0 1
O  -1.40532240  1.00369580 -0.31623954
C  -0.91634820 -0.10218940  0.39342827
C   0.27466407 -0.74257106 -0.27805302
C   0.92682624 -1.56980840 -1.00946780
C   1.63940020 -0.11297610 -0.24790016
N   2.59272360  0.53943210 -0.11131828
H  -0.74635640  1.70868790 -0.27103105
H  -1.72048270 -0.85180694  0.41056103
H  -0.64510450  0.12753603  1.43002070

