%chk=ts_freq.chk
%nprocshared=4
#P wB97X/6-31G(d) opt(ts,calcall,noeigentest,nomicro,maxcycles=150) freq

GSM eqV2 pure Gaussian calcall TS opt+freq: rxn7932

0 1
C  -1.64073400  0.66179800 -1.34231600
C  -0.92472800 -0.65403100 -1.61079700
C  -0.52499200 -0.93655800 -3.06442300
C   0.54636100 -0.83746100 -1.51310000
C   1.34168500  0.46800000 -1.65894800
C   1.42954700  1.03430200 -0.30756200
C   1.46837600  1.48364000  0.80930200
H  -2.67292600  0.61911400 -1.70698700
H  -1.66768800  0.86160300 -0.26532200
H  -1.15149500  1.51409900 -1.82209500
H  -1.47781600 -1.49132500 -1.17900600
H  -1.00476800 -1.81030400 -3.50701000
H  -0.51718000 -0.05674400 -3.70705500
H   0.55873900 -1.36112600 -2.93917200
H   0.91336600  1.23196200 -2.32665300
H   2.35451700  0.25371100 -2.01974500
H   1.51740800  1.88687200  1.79688900

