%chk=ts_freq.chk
%nprocshared=4
#P Opt=(TS,CalcAll,NoEigenTest,NoMicro,MaxCycles=150) Freq External='../../../../../production/external/horm.sh'

External--CalcAll initial TS guess: rxn3256

0 1
O   2.52606650 -0.93948160  0.04013437
C   1.81310260 -0.05551970  0.47393075
C   0.68202780  0.45113236 -0.27911040
C  -0.37145720 -0.46320513 -0.86970670
C  -1.39482340  0.02852445  0.16793418
O  -0.55571043  0.95815873  0.91507520
H   2.01341060  0.44161183  1.44434400
H   0.01232313  1.54501380  0.12685971
H  -0.10100909 -1.52853680 -0.76647544
H  -0.62814510 -0.25143930 -1.91391400
H  -1.70563020 -0.74180290  0.87634206
H  -2.29015520  0.55554426 -0.21541364

