%chk=ts_freq.chk
%nprocshared=4
#P wB97X/6-31G(d) opt(ts,calcfc,noeigentest,nomicro,maxcycles=150) freq

GSM eqV2 pure Gaussian calcfc TS opt+freq: rxn7797

0 1
C  -2.27962100  0.06125200  0.58302200
C  -0.97159600 -0.55251200  0.10344900
C  -0.04931100  0.30404200 -0.82587800
C   1.10720700  0.03791600  0.15253800
C   2.52952600 -1.38601300 -1.00650000
C   2.64673400 -0.24115400 -0.15399500
C   0.19635800 -0.63381900  1.04632900
H  -3.00288900  0.12991500 -0.23735900
H  -2.11225600  1.07075900  0.97609100
H  -2.72937300 -0.54253500  1.37960300
H  -1.15391400 -1.53911700 -0.35450100
H   0.09855800 -0.10337500 -1.82514900
H  -0.34052700  1.35777100 -0.89812500
H   2.63094500 -1.30683200 -2.08213400
H   2.36817700 -2.36593900 -0.56832600
H   3.05285500  0.65132600 -0.63695400
H   3.12261400 -0.37540200  0.82728000
H   0.95619200  0.71486300  1.08604800
H   0.38837300 -1.18407300  1.96298700

