%chk=ts_freq.chk
%nprocshared=4
#P wB97X/6-31G(d) opt(ts,calcfc,noeigentest,nomicro,maxcycles=150) freq

ReactOT exact pure Gaussian calcfc TS opt+freq: rxn6080

0 1
C   1.62131490 -0.56239310 -0.58686370
C   0.62538220  0.31731847  0.13878347
C  -0.95019280  1.61041440 -0.37165886
N  -1.49652100  0.83252500  0.73313710
C  -0.62819767 -0.32270750  0.77212363
C  -1.12560090 -1.45022210 -0.05558790
N  -1.53317680 -2.30856560 -0.71982810
H   1.13113180 -1.15431890 -1.36367330
H   2.42145100  0.02321493 -1.03532590
H   2.07343960 -1.26587400  0.13510013
H   1.11098020  0.99827754  0.83957493
H   0.05744924  0.92769320 -0.82898160
H  -0.40222034  2.48553630  0.00962801
H  -2.45810990  0.59058404  0.55440060
H  -0.44712925 -0.72148260  1.77917120

