%chk=ts_freq.chk
%nprocshared=4
#P wB97X/6-31G(d) opt(ts,calcfc,noeigentest,nomicro,maxcycles=150) freq

GSM eqV2 pure Gaussian calcfc TS opt+freq: rxn4507

0 1
O   2.37722100 -0.84811500 -0.23593100
C   1.27734700 -0.60787300  0.15587900
C   0.76173000  0.58338900  0.97145600
O  -0.51159700  0.31426300  1.20790500
C  -0.94060200 -0.84169500  0.46466200
O   0.21903500 -1.47518400  0.01675600
H   0.69874400  1.44141400 -0.55739700
H   0.93958900  1.70059000  0.22090800
H  -1.55104200 -0.50302400 -0.38173600
H  -1.49959100 -1.49243200  1.13727900

