%chk=ts_freq.chk
%nprocshared=4
#P wB97X/6-31G(d) opt(ts,calcall,noeigentest,nomicro,maxcycles=150) freq

ReactOT exact pure Gaussian calcall TS opt+freq: rxn1879

0 1
O   2.21423000 -0.10477100 -0.26601370
C   0.96435475  0.05491220 -0.09141500
C  -0.21431944  0.93463920  0.26425344
C  -0.99906695 -0.38809840  0.00847729
N   0.29870665 -1.05153690 -0.30657548
H  -0.22542223  1.29985750  1.29440330
H  -0.41459128  1.74621840 -0.44075630
H  -1.49455550 -0.81602865  0.88609093
H  -1.68802030 -0.36939415 -0.84348714
H   1.55868430 -1.30579820 -0.50497730

