%chk=ts_freq.chk
%nprocshared=4
#P wB97X/6-31G(d) opt(ts,calcfc,noeigentest,nomicro,maxcycles=150) freq

GSM eqV2 pure Gaussian calcfc TS opt+freq: rxn2651

0 1
C   1.54331500  0.49310300 -0.99148100
C   0.32466100 -0.15647700 -0.37584100
O  -1.31418000 -0.08211400  0.82662600
C  -1.84218400 -0.82761000 -0.23979600
C  -0.82468200 -0.34231100 -1.25832400
O  -0.91122000  1.10578500 -1.10983500
H   1.35626400  0.99987300 -1.93949800
H   1.97683000  1.22459700 -0.29339500
H   2.30179300 -0.29338100 -1.10286800
H   0.84438800 -0.62242700  0.46283800
H  -2.86400100 -0.47770100 -0.49059700
H  -1.85311100 -1.90855500 -0.09511200
H  -0.71586800 -0.70835400 -2.28679300
H  -1.26831800  0.95032100  0.00590300

