%chk=ts_freq.chk
%nprocshared=4
#P wB97X/6-31G(d) opt(ts,calcall,noeigentest,nomicro,maxcycles=150) freq

GSM eqV2 pure Gaussian calcall TS opt+freq: rxn2669

0 1
C   1.56250300  1.15204500 -0.13798900
C   1.98347500 -0.32566600 -0.06800200
C   0.89749100 -0.96346100 -0.96848600
O  -0.32092200 -1.06689200 -0.24150900
C  -0.80330100  0.26276700 -0.28968200
C   0.35195200  0.92915200 -1.04157700
H   1.27407300  1.61756400  0.81308100
H   2.32869500  1.77842900 -0.60350500
H   1.96819500 -0.78278200  0.92492700
H   2.97190400 -0.49227700 -0.50847200
H   0.68101100 -0.09355500 -1.85182300
H  -0.98048200  0.69374400  0.70881900
H  -1.74721800  0.29234200 -0.85010200
H   0.09787700  1.68748900 -1.78815800

