%chk=ts_freq.chk
%nprocshared=4
#P wB97X/6-31G(d) opt(ts,calcall,noeigentest,nomicro,maxcycles=150) freq

GSM eqV2 pure Gaussian calcall TS opt+freq: rxn3194

0 1
N  -1.34213700 -0.24510900 -0.92161300
C  -0.73525800  0.36624700  0.22033200
C   0.45667000  1.22655900  0.04384700
N   1.60755400  0.66471800  0.27258900
N   2.59400700  0.15320500  0.48199100
O  -0.65587800 -0.63872600  1.03814500
H  -2.23782200 -0.57490500 -0.54843500
H  -1.69849600  1.04150900  0.06548500
H   0.46954400  2.26597100 -0.25438500

