%chk=ts_freq.chk
%nprocshared=4
#P Opt=(TS,CalcAll,NoEigenTest,NoMicro,MaxCycles=150) Freq External='../../../../../production/external/horm.sh'

External--CalcAll initial TS guess: rxn447

0 1
C   2.13671100  0.12183400  0.51015300
C   0.80657800 -0.51538900  0.79206600
O  -0.07422000  0.28651600  1.57478600
C  -0.56349200  1.25797500  0.78615700
O   0.19656300  1.41713700 -0.31108100
C   0.99871000  0.25257300 -0.46198500
H   2.96609700 -0.52316900  0.23198100
H   2.40030500  0.99764700  1.09590500
H   0.63565100 -1.58160400  0.88649900
H  -1.91195900  0.47399400  0.12907200
H  -1.72474300  1.34875400  0.67207900
H   1.01300400 -0.15461700 -1.46617400

