%chk=ts_freq.chk
%nprocshared=4
#P Opt=(TS,CalcAll,NoEigenTest,NoMicro,MaxCycles=150) Freq External='../../../../../production/external/horm.sh'

External--CalcAll initial TS guess: rxn7088

0 1
O  -1.13313390 -0.67330670  1.42752290
C  -1.17767070 -0.09774962  0.16278390
C   0.16816893  1.73733800  0.30446430
O   1.13951610  0.98803520  0.84917010
C   1.71615090 -0.02246395  0.08911649
N   1.12305550 -0.84658990 -0.65655940
C  -0.33299413 -0.81108490 -0.86723550
H  -0.22423531 -0.65555567  1.72929010
H  -2.22746400 -0.01846876 -0.15891020
H   0.30441564  1.68149290 -0.81520367
H  -0.97706443  1.11799180  0.38447055
H   2.78800540 -0.11111183  0.27132988
H  -0.51990490 -0.43023035 -1.87409350
H  -0.64684504 -1.85829600 -0.84614605

