%chk=ts_freq.chk
%nprocshared=4
#P Opt=(TS,CalcAll,NoEigenTest,NoMicro,MaxCycles=150) Freq External='../../../../../production/external/horm.sh'

External--CalcAll initial TS guess: rxn4093

0 1
C  -0.54628720  1.86487760 -0.03152848
C  -0.11178850  0.43260467 -0.31107265
C  -0.99968750 -0.59006190  0.17329015
O   0.91263570  0.03355872  0.54970264
C   1.38366630 -1.55943500  0.04301260
O   1.93635930 -1.56127810 -1.04464950
H  -1.38429060  2.17148230 -0.68171024
H  -0.88281300  1.97393690  1.00255370
H   0.27774500  2.53876610 -0.22041748
H   0.15387674  0.32268748 -1.38137160
H  -1.50378260 -1.37777050 -0.37670106
H   0.21643983 -1.84913900  0.06843913
H  -1.27493600 -0.55362520  1.22386990
H   1.82286250 -1.84660420  0.98658300

