%chk=ts_freq.chk
%nprocshared=4
#P wB97X/6-31G(d) opt(ts,calcfc,noeigentest,nomicro,maxcycles=150) freq

ReactOT exact pure Gaussian calcfc TS opt+freq: rxn4742

0 1
O  -1.32360770  1.99403550 -0.04745442
C  -0.59877473  1.03392220  0.05777040
C  -0.90028876 -0.43582398 -0.25183633
C   0.41020113 -1.09412120  0.01807009
C   1.37371650 -0.20303439  0.52156806
N   0.73097060  1.03380130  0.47706830
H  -1.30315580 -0.54332740 -1.26293890
H  -1.67347430 -0.80917250  0.43829330
H   0.59291947 -2.16406800 -0.02300788
H   1.51217230 -0.70698756 -0.64617640
H   1.17932130  1.89477620  0.71864360

