%chk=ts_freq.chk
%nprocshared=4
#P Opt=(TS,CalcAll,NoEigenTest,NoMicro,MaxCycles=150) Freq External='../../../../../production/external/horm.sh'

External--CalcAll initial TS guess: rxn7151

0 1
C   2.39669560  0.18732288  0.14134572
N   1.29352710  0.18131931 -0.78380716
C   0.03843049  0.28078294 -0.47111830
N  -1.01143320  0.62043184 -1.07614330
N  -2.21052530  0.82307530 -0.84096444
C  -2.39279500 -0.67307520  1.13445770
C  -1.21363160 -0.98117820  1.27989270
H   3.28422880 -0.24713592 -0.32862720
H   2.65335970  1.19315520  0.47643203
H   2.15655730 -0.41694987  1.01560470
H   1.52780160  0.39317784 -1.74568760
H  -2.80361200  0.48624778 -1.58217800
H  -3.41049980 -0.38699788  1.13337500
H  -0.30810335 -1.46017600  1.64741800

