%chk=ts_freq.chk
%nprocshared=4
#P wB97X/6-31G(d) opt(ts,calcall,noeigentest,nomicro,maxcycles=150) freq

ReactOT exact pure Gaussian calcall TS opt+freq: rxn7829

0 1
N   1.40610700 -0.23735575 -1.30664410
C   0.60330814 -0.73706865 -0.04001949
O   0.67878515 -1.95392510  0.10950331
C   0.57466640  0.35986640  1.02646030
N  -0.62461550  1.08712830  0.61012566
C  -1.77039590  0.15679497  0.74526260
C  -0.99321765  0.21361408 -0.52993420
H   1.73358170 -1.01859760 -1.83659060
H   2.07246830  0.50480384 -1.20653010
H   0.49097857 -0.09418441  2.02552940
H   1.44444780  1.02332600  1.02817820
H  -1.65835370 -0.70429957  1.38990090
H  -2.73350550  0.69249530  0.76986240
H   0.27476770  0.00159208 -1.42215010
H  -1.49902190  0.70581000 -1.36295410

