%chk=ts_freq.chk
%nprocshared=4
#P wB97X/6-31G(d) opt(ts,calcall,noeigentest,nomicro,maxcycles=150) freq

GSM eqV2 pure Gaussian calcall TS opt+freq: rxn2024

0 1
C  -1.16022500  0.13816800  0.20043400
C   0.17305700 -0.46507000  0.08855500
C   0.81772900 -1.10445500  1.21468100
O   0.40277000 -1.19560500  2.37757400
C   2.34455500 -0.48381500  0.96272400
N   3.48461100 -0.60548500  1.15077800
H  -1.49353200  0.09520100  1.24071300
H  -1.88242700 -0.35739500 -0.46042200
H  -1.10186700  1.18279800 -0.13547500
H   0.67266300 -0.54177800 -0.87604900
H   1.20111200 -1.99895100  0.57547300

