%chk=ts_freq.chk
%nprocshared=4
#P wB97X/6-31G(d) opt(ts,calcfc,noeigentest,nomicro,maxcycles=150) freq

ReactOT exact pure Gaussian calcfc TS opt+freq: rxn9799

0 1
O  -2.46418170  0.72729814  0.05002897
C  -1.34334410 -0.00440709 -0.08462572
N  -0.19793220  0.73344237  0.27188164
C   0.87594557  0.08487647  0.14621912
O   2.26097400  0.69296570  0.46784788
C   1.86758410 -0.75426040 -0.20237085
N  -1.30707430 -1.20073180 -0.49273670
H  -2.21151040  1.59732820  0.40260730
H   2.55284330  1.21120330 -0.30918240
H   2.20737270 -1.56034760  0.46275213
H  -2.24067740 -1.52736710 -0.71242140

