%chk=ts_freq.chk
%nprocshared=4
#P wB97X/6-31G(d) opt(ts,calcall,noeigentest,nomicro,maxcycles=150) freq

ReactOT exact pure Gaussian calcall TS opt+freq: rxn1661

0 1
O  -1.17307660 -1.25827350  0.84067744
C  -1.23493230 -0.64213670 -0.29540238
C  -0.50371340  0.62224704 -0.38296914
C   1.21138790 -0.14958350  0.57402205
C   2.33471750  0.28439265  0.47093550
H   0.32442170 -0.80514956  0.99409395
H  -1.24222350 -1.22613540 -1.22373810
H  -2.09793230  0.15078576 -0.43045208
H  -0.31839046  1.07100990 -1.36647550
H  -0.61645997  1.29374270  0.46279937
H   3.31620140  0.65910070  0.35650888

