%chk=ts_freq.chk
%nprocshared=4
#P wB97X/6-31G(d) opt(ts,calcfc,noeigentest,nomicro,maxcycles=150) freq

ReactOT exact pure Gaussian calcfc TS opt+freq: rxn5484

0 1
O   2.44741270  0.65250190  0.64255450
C   1.65958170 -0.37960270  0.10816652
C   0.22372928 -0.16590830  0.45395260
C  -0.61198630  0.70092300 -0.38063535
C  -2.01785760  0.70224303 -0.20865168
C  -1.51534490 -1.64943080 -0.06508751
O  -1.84091280 -2.51266460 -0.71769450
H   3.34312440  0.60162230  0.31047240
H   1.95401810 -1.35644790  0.56907237
H   1.74872790 -0.47513115 -0.98230910
H  -0.06775319 -0.22465423  1.50399090
H  -0.02872012  1.42063200  0.31313658
H  -0.22352274  0.87866760 -1.38649080
H  -2.64334420  1.19296700 -0.94718180
H  -2.42715240  0.61428297  0.78670496

