%chk=ts_freq.chk
%nprocshared=4
#P wB97X/6-31G(d) opt(ts,calcall,noeigentest,nomicro,maxcycles=150) freq

GSM eqV2 pure Gaussian calcall TS opt+freq: rxn1220

0 1
C  -1.68045800  0.30695100  0.16331100
C  -0.18154400  0.33965000  0.10679300
C   0.56215800  1.25016900 -0.83076800
C   0.77202600 -0.60298200 -0.59090300
C   1.47754800 -0.53648300  0.77098800
O   0.48309500  0.31252000  1.37430800
H  -2.00948100 -0.56256500  0.73928300
H  -2.06293800  1.20922800  0.65267900
H  -2.09896500  0.24030400 -0.84520300
H   1.13741400  2.02448900 -0.32541700
H  -0.00636200  1.54788000 -1.70930600
H   1.34157500  0.44779700 -1.33888000
H   2.49696000 -0.13603000  0.82796600
H   1.45656200 -1.53582700  1.22450700

