%chk=ts_freq.chk
%nprocshared=4
#P wB97X/6-31G(d) opt(ts,calcfc,noeigentest,nomicro,maxcycles=150) freq

ReactOT exact pure Gaussian calcfc TS opt+freq: rxn9928

0 1
C   1.58689250 -0.87898964 -0.11703431
C   0.55258715 -0.05373591  0.60685240
N   0.79084057  1.31666860  0.89011800
C  -0.52337740  1.65082250  0.52291880
O  -1.12607680  2.68974160  0.44208834
C  -0.89464194  0.18984000  0.19300151
C  -1.26139520 -0.14711478 -1.24336500
H   1.67045220 -0.46935368 -1.12870290
H   1.32051580 -1.93273440 -0.16083162
H   2.55319790 -0.75208350  0.37131858
H   0.40581504 -0.83035860  1.71783920
H   0.65780220  0.06695203  1.83672700
H  -1.63306470 -0.21434528  0.89313110
H  -0.54363596  0.28599456 -1.95208920
H  -2.23911020  0.29949300 -1.45065180
H  -1.31680120 -1.22079670 -1.42132020

