%chk=ts_freq.chk
%nprocshared=4
#P wB97X/6-31G(d) opt(ts,calcfc,noeigentest,nomicro,maxcycles=150) freq

GSM eqV2 pure Gaussian calcfc TS opt+freq: rxn7398

0 1
C  -4.08649000 -0.47250000 -1.69973000
C  -3.01906400 -1.30157000 -1.00075400
O  -1.83491500 -0.59113600 -0.59746900
C  -1.70888600  0.58392600  0.15076200
C  -2.46242100  1.86694800 -0.10207100
C  -3.44040900  2.04703900 -1.03633100
C  -3.54800400  0.68378900 -2.36247200
H  -4.02906900  1.12143700 -0.71001900
H  -4.75435100 -1.04465100 -2.34458700
H  -3.42318900 -1.84318800 -0.12828800
H  -2.58391200 -2.06780300 -1.66470200
H  -1.78234100  0.37516000  1.23613000
H  -0.65707000  0.86853500 -0.01088900
H  -2.14596100  2.64363800  0.60017300
H  -3.94012800  3.00254100 -1.17639700
H  -2.58627500  0.77215600 -2.88822000
H  -4.31323000  1.20632700 -2.94683700

