%chk=ts_freq.chk
%nprocshared=4
#P Opt=(TS,CalcAll,NoEigenTest,NoMicro,MaxCycles=150) Freq External='../../../../../production/external/horm.sh'

External--CalcAll initial TS guess: rxn2131

0 1
C   1.71769850  0.46215278  0.27116525
C   0.43656880  0.11961135 -0.35649220
C  -0.22380362 -1.21723640 -0.38111210
C  -1.43053670 -0.44828308  0.13000241
C  -0.79238470  0.99896640 -0.26773837
O  -0.54076150  1.79286680  0.73330414
H   2.51938180 -0.14504927 -0.17657168
H   1.91654010  1.52725160  0.19252083
H   1.72260830  0.22942302  1.35024680
H  -0.35183704 -1.58890080 -1.39763360
H   0.20819916 -2.00278190  0.25207058
H  -1.54995480 -0.48723940  1.21380020
H  -2.37445860 -0.64280206 -0.37936990
H  -1.25725970  1.40202100 -1.18419240

