%chk=ts_freq.chk
%nprocshared=4
#P wB97X/6-31G(d) opt(ts,calcall,noeigentest,nomicro,maxcycles=150) freq

ReactOT exact pure Gaussian calcall TS opt+freq: rxn8684

0 1
N   0.84546140  1.39451910  0.77888930
C   0.52437025  0.57329070 -0.20836368
C  -1.54724190 -0.16379347 -0.62695086
C  -0.88481104 -1.09382340  0.05119382
O   0.22542906 -1.70966080 -0.55596095
C   1.15621650 -0.67995363 -0.41460195
O   2.35587930 -0.87915190 -0.48895776
H   0.65843654  2.39177900  0.69868016
H   1.47041140  1.12464550  1.52754060
H  -2.35525040  0.40288323 -0.16712497
H  -1.37615510 -0.01776400 -1.69015230
H  -1.07274600 -1.34297040  1.09580870

