%chk=ts_freq.chk
%nprocshared=4
#P Opt=(TS,CalcAll,NoEigenTest,NoMicro,MaxCycles=150) Freq External='../../../../../production/external/horm.sh'

External--CalcAll initial TS guess: rxn2478

0 1
C  -2.12734500  0.57920600  1.02605300
C  -1.11314300  0.86336500  0.32294600
C  -0.00062600  0.85621400 -0.39689300
C   0.98595700  0.82405000 -1.38330900
C   2.33489800  1.31554600 -1.05576600
N   2.05086000 -0.16834400 -1.20211000
H  -1.72794300  1.09914400 -0.44316100
H  -2.94108300  1.31149400  1.66160200
H  -2.86060700  0.42550900  1.58384600
H   0.61877400  0.81862100 -2.41897600
H   2.49541100  1.78237100 -0.10416900
H   2.92376300  1.73497000 -1.87032800
H   1.95914100 -0.56342400 -0.27799300

