%chk=ts_freq.chk
%nprocshared=4
#P wB97X/6-31G(d) opt(ts,calcall,noeigentest,nomicro,maxcycles=150) freq

ReactOT exact pure Gaussian calcall TS opt+freq: rxn3244

0 1
O   1.94652580 -0.99720734  0.11391013
C   1.11738050 -0.29783326  0.80901530
C   0.50699960  0.59608480 -0.24613896
C  -0.50799155 -0.24629270 -1.00178420
C  -1.36521230  0.14272317  0.15545136
O  -0.88467090  1.26628890  0.52212006
H   1.47875600  0.25157213  1.69591160
H   1.05998400  1.42382620 -0.69030654
H  -0.22893116 -1.29411350 -1.11878870
H  -0.85847056  0.19510645 -1.93988660
H   0.05333199 -0.84687530  1.14120520
H  -2.31770130 -0.19327949  0.55929120

