%chk=ts_freq.chk
%nprocshared=4
#P Opt=(TS,CalcAll,NoEigenTest,NoMicro,MaxCycles=150) Freq External='../../../../../production/external/horm.sh'

External--CalcAll initial TS guess: rxn7511

0 1
C   2.60904800 -0.09972136  0.35915590
C   1.61966250  0.41918835 -0.57519540
C   0.86785126  1.03355530 -1.36568000
C  -0.00896148 -0.39690015 -0.71183735
N  -0.78216803 -0.05576824  0.46130982
C  -2.14273860 -0.49558678  0.45783600
C  -1.81276350  0.93438864  0.28506860
H   3.49127700  0.53525656  0.34395283
H   2.91375180 -1.12763690  0.11945306
H   2.21317700 -0.08961387  1.38072840
H  -0.58917010 -0.49190313 -1.62351040
H   0.50738215 -1.32947210 -0.52048200
H  -2.52452780 -0.83959824  1.41872940
H  -2.51439710 -1.01111020 -0.42833240
H  -1.90300080  1.37328030 -0.70922690
H  -1.94442220  1.64164190  1.10803030

