%chk=ts_freq.chk
%nprocshared=4
#P wB97X/6-31G(d) opt(ts,calcall,noeigentest,nomicro,maxcycles=150) freq

ReactOT exact pure Gaussian calcall TS opt+freq: rxn4970

0 1
C  -0.96584195  1.33777870  0.56228554
C  -0.58560260 -0.12955882  0.63134235
C  -0.63847100 -0.90588284 -0.69467366
O   0.74103695 -1.35194830 -0.63721985
C   0.92510910 -0.47796348  0.70912004
C   1.88161440  0.50280630  0.15900300
C   1.78705760 -0.08338165 -0.99076870
H  -2.02935080  1.45603130  0.31286052
H  -0.81877430  1.82664080  1.53050090
H  -0.37252897  1.87116630 -0.19878751
H  -1.14265130 -0.64757690  1.40977180
H  -0.82756060 -0.30428990 -1.59140410
H  -1.28549660 -1.78755370 -0.69911355
H   1.24035080 -1.15346920  1.52333870
H   2.09110930 -0.15279889 -2.02625560

