%chk=ts_freq.chk
%nprocshared=4
#P Opt=(TS,CalcAll,NoEigenTest,NoMicro,MaxCycles=150) Freq External='../../../../../production/external/horm.sh'

External--CalcAll initial TS guess: rxn464

0 1
C   1.90105570  0.01476821 -0.48130184
C   0.27124554  0.15054272  0.94287320
C  -0.73463106  0.94448820  0.38296762
C  -1.59715010 -0.41093293 -0.46861765
O  -0.67766833 -1.15939450 -0.97747790
C   0.91106240 -0.76769020  0.04510724
H   1.73725410  1.04495880 -0.75912625
H   2.86084100 -0.41461632 -0.76743600
H   0.43958578  0.01914196  2.01243450
H  -0.48179978  1.51311860 -0.52009320
H  -1.37649760  1.52071890  1.05221350
H  -2.22243550  0.13592020 -1.18845700
H  -2.21183060 -0.82839790  0.34481000
H   1.18096830 -1.76262580  0.38210374

