%chk=ts_freq.chk
%mem=6GB
%nprocshared=4
#P Opt=(TS,CalcAll,NoEigenTest,NoMicro,MaxCycles=150) Freq External='../../../../../production/external/horm.sh'

External--CalcAll initial TS guess: rxn8696

0 1
C   2.59434720  1.08253620 -0.63261690
C   1.50971090  0.60946125 -0.38441557
C   0.20762220  0.04392390 -0.08409289
C  -0.04919066 -1.37844900  0.42247698
C  -1.51099320 -0.91989330  0.13806324
C  -0.67721690  0.73172575  0.97252370
C  -0.92332640 -0.17014112 -1.09352430
H   3.56180300  1.51276340 -0.84749310
H   0.23501427 -1.61104600  1.45224190
H   0.24982658 -2.17595400 -0.25768724
H  -1.71683140  0.01448439  1.00066710
H  -1.04103760  1.72343160  0.69185054
H  -0.29096437  0.68661577  1.99363090
H  -0.70055604 -0.86345180 -1.90573480
H  -1.44820770  0.71399300 -1.46588960

