%chk=ts_freq.chk
%nprocshared=4
#P wB97X/6-31G(d) opt(ts,calcall,noeigentest,nomicro,maxcycles=150) freq

ReactOT exact pure Gaussian calcall TS opt+freq: rxn2823

0 1
C   1.54438700 -0.09812355  0.55481850
C   0.77637625  0.81674030 -0.12035926
C  -0.95162416  0.26510486 -0.99771106
C  -1.33527400 -0.69626933 -0.11462685
O  -1.19585610  0.03888790  1.04054620
C  -0.65796506  1.10879020  0.20321852
H   1.26262520 -0.36316994  1.57762030
H   2.58626300 -0.22805782  0.29854330
H   0.76895934 -1.47500300  0.22396010
H   1.18386320  1.38057730 -0.95327413
H  -0.94474860  0.45579510 -2.06899290
H   0.00509179 -1.76735250  0.07459181
H  -2.02588840 -1.54574110 -0.18595037
H  -1.01620910  2.10782170  0.46761566

