%chk=ts_freq.chk
%nprocshared=4
#P wB97X/6-31G(d) opt(ts,calcall,noeigentest,nomicro,maxcycles=150) freq

ReactOT exact pure Gaussian calcall TS opt+freq: rxn165

0 1
O  -1.28584860 -1.28263850 -0.66069907
C  -1.18662460  0.11070973 -0.75646573
C   0.16764005  0.63178825 -0.36134780
O   0.37519960  0.04061025  1.26260080
C   1.39290010  0.02133203 -0.81247413
C   1.68232140 -0.46692960  0.36706614
H  -1.04058200 -1.47644400  0.25914904
H  -1.95126950  0.60814166 -0.14085601
H  -1.35028670  0.39459422 -1.79372970
H   0.20122401  1.72190750 -0.23112363
H   0.63865010  0.73200240  1.88547950
H   2.35667600 -1.03507380  0.98240070

