%chk=ts_freq.chk
%nprocshared=4
#P wB97X/6-31G(d) opt(ts,calcall,noeigentest,nomicro,maxcycles=150) freq

ReactOT exact pure Gaussian calcall TS opt+freq: rxn5628

0 1
C   2.25046400 -0.36189184 -0.26369962
C   0.92243210  0.05303164  0.24788554
O  -0.41877174  1.09899600 -1.09701750
C  -1.50118940  1.08384980 -0.15898725
C  -1.45982060 -0.16751295  0.73731970
C  -0.18050330 -0.92730010  0.35241422
O  -0.19931678 -1.32533110 -0.96581900
H   2.61100320  0.27894750 -1.06852640
H   2.18932500 -1.38495500 -0.64473150
H   2.94493910 -0.26113972  0.57253390
H   0.87731690  1.05875860  0.67253660
H  -2.45224450  1.14629880 -0.71252050
H  -1.42071430  2.02148460  0.40692222
H  -1.48701920  0.10614569  1.79502640
H  -2.30813700 -0.83386340  0.52968580
H   0.07092258 -1.73802340  1.06279650
H  -0.43868575  0.15250476 -1.46581890

