%chk=ts_freq.chk
%nprocshared=4
#P wB97X/6-31G(d) opt(ts,calcfc,noeigentest,nomicro,maxcycles=150) freq

ReactOT exact pure Gaussian calcfc TS opt+freq: rxn442

0 1
C   1.15547170  0.43067205  0.35307290
C   0.52797383 -0.88417190  0.05226147
O  -0.81302210 -0.99951140  0.32462472
C  -1.45663440  0.22257571  0.06460586
O  -0.77083570  0.82498940 -1.00633290
C   0.58538470  0.62728333 -1.03617620
H   2.23776270  0.42669353  0.38239470
H   0.71546970  0.99811080  1.16718340
H   1.04650430 -1.82400080  0.18121499
H  -2.48552320  0.05205207 -0.22355730
H  -1.42644790  0.86889565  0.96668260
H   0.68389624 -0.74358830 -1.22597420

