%chk=ts_freq.chk
%nprocshared=4
#P Opt=(TS,CalcAll,NoEigenTest,NoMicro,MaxCycles=150) Freq External='../../../../../production/external/horm.sh'

External--CalcAll initial TS guess: rxn6802

0 1
C   2.21790800  0.22386400 -0.58836500
C   0.83204000 -0.03623800 -0.14434600
O  -0.21580100  1.39792200 -1.03279000
C  -1.16209300  0.79316500 -0.41813800
C  -1.42773700 -0.68352900 -0.78508800
C  -0.15786000 -1.15416500 -0.14346400
C   0.01069900 -0.12502600  0.95660500
H   2.62881300  1.10495600 -0.09030200
H   2.82728100 -0.64918500 -0.32229300
H   2.26233900  0.36301800 -1.67025700
H  -2.02143700  1.39623900 -0.07520600
H  -2.32051300 -1.08048900 -0.29102100
H  -1.51838200 -0.79767400 -1.87478300
H   0.18179800 -2.19115800 -0.11627700
H   0.08626300 -0.07317600  2.03374100

