%chk=ts_freq.chk
%nprocshared=4
#P wB97X/6-31G(d) opt(ts,calcfc,noeigentest,nomicro,maxcycles=150) freq

ReactOT exact pure Gaussian calcfc TS opt+freq: rxn4685

0 1
O   2.71378520  0.10482100 -0.10556536
C   1.52101350 -0.33521003  0.44100060
C   0.34524953 -0.12748301 -0.33766106
C  -0.52728180 -1.24861260  0.11667407
C  -1.89219220  0.61549670 -0.41648130
C  -0.62402207  1.25772320 -0.17085831
H   3.25695350  0.53661130  0.56161270
H   0.76199770 -1.74054240  0.48205470
H   1.48395070 -0.27827886  1.52253150
H   0.52367530 -0.14985749 -1.41383900
H  -0.94168305 -1.22786680  1.10873640
H  -0.91891180 -2.00386550 -0.57079697
H  -2.23073720  0.52237170 -1.44787690
H  -2.62808470  0.43202233  0.35163470
H  -0.53172326  1.67210920  0.82424050
H  -0.31198943  1.97056110 -0.94540644

