%chk=ts_freq.chk
%mem=6GB
%nprocshared=4
#P Opt=(TS,CalcAll,NoEigenTest,NoMicro,MaxCycles=150) Freq External='../../../../../production/external/horm.sh'

External--CalcAll initial TS guess: rxn7938

0 1
O  -1.13414220  0.16501361  2.05004240
C  -0.47108686 -0.52154180  1.19170810
C  -1.09826780 -0.05187689 -0.10491072
C   0.74685055  0.33463287  0.51990134
C   0.07835499  0.48646855 -0.86623055
C   0.60703820 -0.48445353 -1.84085150
N   0.99574350 -1.29269040 -2.57292680
H  -0.20849481 -1.58443570  1.36120570
H  -2.04816250  0.45492113  0.00380438
H   1.65677150 -0.26685400  0.48666070
H   0.85722655  1.27176130  1.05376220
H   0.01816876  1.48905480 -1.28216520

