%chk=ts_freq.chk
%nprocshared=4
#P wB97X/6-31G(d) opt(ts,calcall,noeigentest,nomicro,maxcycles=150) freq

GSM eqV2 pure Gaussian calcall TS opt+freq: rxn1341

0 1
O   0.27452700 -0.82885600 -1.89072700
C  -0.15649600  0.32425900 -1.40961500
C  -1.57533400  0.38545500 -0.82659900
C  -1.55090900  0.33727500  0.72387100
O  -0.26931500 -0.06065900  1.17955700
C   0.67547200  0.53109600  0.34132200
H   0.56387400 -0.40736500 -0.62288900
H   0.17769500  1.25427300 -1.90282400
H  -2.09027200 -0.48581600 -1.23956000
H  -2.08885400  1.29038600 -1.16519100
H  -2.27052900 -0.37556600  1.13066400
H  -1.77757700  1.33673900  1.12539300
H   0.66476900  1.62694500  0.40120300
H   1.68531500  0.17200100  0.58298400

