%chk=ts_freq.chk
%nprocshared=4
#P wB97X/6-31G(d) opt(ts,calcall,noeigentest,nomicro,maxcycles=150) freq

ReactOT exact pure Gaussian calcall TS opt+freq: rxn1915

0 1
C  -0.99571854  0.66736970  0.93968020
C  -0.08926333  0.05281736 -0.09997154
N  -0.55054910 -0.18848103 -1.39124770
N   1.35489000  0.23500708  0.08542553
C   0.95440000 -1.13452360 -0.05238324
O   0.85445550 -1.53127290 -1.30084980
H  -1.99064230  0.21945432  0.87350140
H  -1.09104600  1.74104400  0.80808280
H  -0.57543135  0.47244224  1.93126960
H  -0.77630320  0.74298537 -1.79990330
H   1.80661010  0.55928576 -0.76617280
H   1.09859800 -1.83612820  0.77256890

