%chk=ts_freq.chk
%nprocshared=4
#P wB97X/6-31G(d) opt(ts,calcfc,noeigentest,nomicro,maxcycles=150) freq

ReactOT exact pure Gaussian calcfc TS opt+freq: rxn596

0 1
O  -2.10581180  1.05901960  0.52798670
C  -1.54353800  0.15836151  0.00101900
C  -0.25792130 -0.29593340 -0.26575565
C   0.90905110  0.62918895 -0.02116727
C   2.13826750 -0.10746100  0.26034808
N   3.09782980 -0.70277850  0.48604915
H  -2.28529550 -0.89050200 -0.32779458
H  -0.14041768 -1.19831090 -0.85273904
H  -1.58233390 -1.20084820  0.30123398
H   0.68027040  1.31870880  0.80476004
H   1.08989930  1.23055520 -0.91394037

