%chk=ts_freq.chk
%nprocshared=4
#P wB97X/6-31G(d) opt(ts,calcall,noeigentest,nomicro,maxcycles=150) freq

GSM eqV2 pure Gaussian calcall TS opt+freq: rxn220

0 1
C   1.10302400 -0.09095600 -0.25459800
C   0.01876300  0.36290700  0.67595600
C  -1.09382400 -0.48098400  1.24653600
C  -1.42653600  0.64098100  0.32761100
O  -1.69282800  1.85532700  0.96152600
C  -0.35611800  2.22803200  1.25664700
H   0.69455100 -0.80269400 -0.98290900
H   1.91884600 -0.59046700  0.27851400
H   1.52082200  0.75283100 -0.81379200
H  -1.15074600 -1.48278700  0.82814600
H  -1.35590100 -0.39078100  2.29750600
H  -1.86304300  0.47799000 -0.65754200
H   0.30542300  1.16149200  1.60274400
H   0.10591600  2.58677400  0.31650900

