%chk=ts_freq.chk
%nprocshared=4
#P wB97X/6-31G(d) opt(ts,calcall,noeigentest,nomicro,maxcycles=150) freq

ReactOT exact pure Gaussian calcall TS opt+freq: rxn846

0 1
C  -1.58355520  0.11459364 -0.22342706
C  -0.32248710 -0.25685910  0.53968054
O  -0.10692712 -1.64093890  0.60102440
C   0.86257620  0.51973350  0.18283163
O   0.76712800  1.70295820  0.69842976
N   1.93611750  0.09897408 -0.46406636
H  -1.67952900  1.20320960 -0.35535390
H  -2.46205020 -0.22037554  0.33952980
H  -1.62052860 -0.35045790 -1.21723540
H  -0.09418992  1.10001530  1.31355610
H  -0.46084350 -2.06109140 -0.20600668
H   1.96830150 -0.84065086 -0.82340944
H   2.79598740  0.63088920 -0.38555318

