%chk=ts_freq.chk
%nprocshared=4
#P wB97X/6-31G(d) opt(ts,calcall,noeigentest,nomicro,maxcycles=150) freq

GSM eqV2 pure Gaussian calcall TS opt+freq: rxn6113

0 1
C   2.33364000 -0.54986400  0.77076500
C   0.60542800  0.95029300  0.60966900
C  -0.17900300  0.12692800 -0.32206800
O  -0.15224100 -1.15846200 -0.04089800
C  -1.64156800  0.74039300  0.04478300
C  -2.55413100  0.36525700 -1.11149700
O  -2.02451500  0.17229300  1.25583300
H   2.66216000 -1.52581300  1.17255400
H   2.70465900 -0.53849300 -0.26122300
H   2.82235100  0.22441300  1.36587200
H   0.27684100  0.81265900  1.64437700
H   0.87601000  1.99614800  0.40146600
H  -0.01069800  0.39648000 -1.39331200
H   1.15908200 -0.91360500  0.68844600
H  -1.62212800  1.81590400  0.19237300
H  -2.45579000 -0.70440400 -1.31292300
H  -3.59734900  0.59035300 -0.84182100
H  -2.31372500  0.92243000 -2.01854000
H  -2.56124100 -0.60710900  1.08459800

