%chk=ts_freq.chk
%nprocshared=4
#P wB97X/6-31G(d) opt(ts,calcall,noeigentest,nomicro,maxcycles=150) freq

GSM eqV2 pure Gaussian calcall TS opt+freq: rxn3618

0 1
C  -1.72815300 -0.37407200 -0.18810400
C  -0.34624900  0.09234800 -0.47091700
N   0.71618400 -0.55997800 -0.96169100
C   1.62081400  0.52169700 -0.96800900
C   0.37875200  1.39081000 -0.90152200
O   0.05912900  2.52886300 -1.07156700
H  -1.74502500 -1.43103400  0.09694400
H  -2.38014600 -0.23949100 -1.06114800
H  -2.15446400  0.20877100  0.63232000
H   0.72395300  0.51204200  1.10951100
H   0.93549200 -1.54483700 -0.86323300
H   2.44639600  0.57528700 -1.66867300
H   1.48157300  0.66852600  0.63180300

