%chk=ts_freq.chk
%nprocshared=4
#P wB97X/6-31G(d) opt(ts,calcall,noeigentest,nomicro,maxcycles=150) freq

ReactOT exact pure Gaussian calcall TS opt+freq: rxn1811

0 1
C  -2.38888070 -0.02246448  0.35892367
O  -1.22679850 -0.59690760  0.18924315
C  -0.08948536  0.04615626  0.28132096
C   1.11489210 -0.75821180 -0.03031275
C   2.38634250 -0.07929662 -0.25927213
O   2.15274700 -0.77815210  0.92923320
H  -3.21768570 -0.73019160  0.34525406
H  -2.44044760  0.84267270  1.02829670
H  -1.75939080  1.16033520 -0.99824820
H  -0.03870004  0.93607730  0.87969947
H  -0.96810880  1.21437030 -1.02821710
H   0.93168870 -1.69869110 -0.54882530
H   2.43677950  1.00974060 -0.19597400
H   3.10704780 -0.54543690 -0.95112160

