%chk=ts_freq.chk
%nprocshared=4
#P wB97X/6-31G(d) opt(ts,calcall,noeigentest,nomicro,maxcycles=150) freq

GSM eqV2 pure Gaussian calcall TS opt+freq: rxn4608

0 1
C  -1.00368100  1.36776000  0.34090100
O  -1.56908400  0.02644600  0.29386000
C  -0.65181800 -1.09039900 -0.90574000
C   1.41457000 -2.38591900 -0.36714300
C  -0.16169200 -0.82679700 -0.32908300
C   1.44819200 -0.19514500  0.05409900
H  -1.01148000  1.78602900 -0.66996500
H  -1.55470100  1.96864600  1.07273600
H   0.10620200  1.46279600  0.74228700
H  -0.68994300 -2.16134900 -1.20305500
H  -0.78102600 -0.51852200 -1.81611100
H   2.10006400 -1.05971300  0.49651200
H   2.43618600  0.14822500  0.32894200
H   0.58113600  0.60359900 -0.16919500

