%chk=ts_freq.chk
%nprocshared=4
#P wB97X/6-31G(d) opt(ts,calcfc,noeigentest,nomicro,maxcycles=150) freq

ReactOT exact pure Gaussian calcfc TS opt+freq: rxn5615

0 1
C  -1.56046840 -0.77248800  0.40764526
C  -0.34207480  0.65547240 -0.68032396
C   0.54449785  1.37057030  0.17704582
O   1.59420310  0.75164497  0.71400990
C   1.65579380 -0.62207294  0.58963495
N   0.85990260 -1.39444360  0.04007727
C  -0.43994290 -0.90330040 -0.46748435
H  -1.45987640 -0.48818097  1.44851420
H  -2.56666160 -0.89081940  0.00877291
H  -1.19767300  1.19104550 -1.10416000
H   0.34757513  2.35007070  0.59117210
H   0.59984540  1.07216400 -1.29268880
H   2.62437030 -0.94628984  0.99097030
H  -0.65949110 -1.37337260 -1.42318570

