%chk=ts_freq.chk
%nprocshared=4
#P Opt=(TS,CalcAll,NoEigenTest,NoMicro,MaxCycles=150) Freq External='../../../../../production/external/horm.sh'

External--CalcAll initial TS guess: rxn6553

0 1
O  -2.51644700 -0.92022100 -0.65987200
C  -2.03379300  0.11190000 -0.26574200
C  -0.63214100  0.41838400 -0.03742500
C   0.23148000  1.33990800  0.19784500
N   1.24476600  0.65333900 -0.52838800
C   1.53262400 -0.60485400 -0.09786700
N   0.57559400 -1.41679000  0.18006100
H  -2.66116100  0.98095400  0.01745800
H   0.35028100  2.34762500  0.58347000
H   2.58701800 -0.86847800 -0.06382900
H   0.89077900 -2.29377700  0.61274600

