%chk=ts_freq.chk
%nprocshared=4
#P wB97X/6-31G(d) opt(ts,calcall,noeigentest,nomicro,maxcycles=150) freq

GSM eqV2 pure Gaussian calcall TS opt+freq: rxn4567

0 1
C   1.75627000  0.38027100 -0.22331900
N   0.47162300  0.67488500 -0.06725100
C  -0.43697700  1.27262700  0.88294800
C  -0.60008900 -0.05288300  0.18471100
C  -1.32057600 -1.11622700 -0.50678400
O  -2.34456700 -1.65039400 -0.15637800
H   2.47856900  1.13809100  0.03336900
H   1.99781400 -0.32725500 -1.01499800
H   1.51114500 -0.83144600  0.89320200
H  -0.11697400  1.23731100  1.92788800
H  -0.92380400  2.17451700  0.53178400
H   0.44633200 -1.05614100  0.97430600
H  -0.78433300 -1.41976400 -1.43120700

