%chk=ts_freq.chk
%nprocshared=4
#P wB97X/6-31G(d) opt(ts,calcall,noeigentest,nomicro,maxcycles=150) freq

ReactOT exact pure Gaussian calcall TS opt+freq: rxn6349

0 1
O   1.36836250 -0.29334828  1.40210080
C   1.36414920 -0.32774368  0.08076303
C   0.19096304 -0.95338010 -0.51284560
C  -1.16882670 -0.55959857 -0.06360912
C  -1.26968620  0.92941550  0.30131352
C  -0.16496408  1.68169840 -0.39262813
C   0.93910190  1.02504480 -0.68669605
H   0.87489593 -1.76429670  1.43431040
H   2.29635170 -0.64929300 -0.43318176
H   0.53381103 -2.30282830  0.88308537
H   0.28674322 -1.44233670 -1.48924700
H  -1.49182770 -1.17929970  0.77323790
H  -1.87589420 -0.77070330 -0.87459810
H  -2.25373900  1.32958630  0.08631047
H  -1.10492680  1.04902240  1.38705240
H  -0.26073010  2.74886160 -0.61709780
H   1.73621640  1.47919950 -1.27827050

