%chk=ts_freq.chk
%nprocshared=4
#P wB97X/6-31G(d) opt(ts,calcall,noeigentest,nomicro,maxcycles=150) freq

ReactOT exact pure Gaussian calcall TS opt+freq: rxn4103

0 1
C  -1.43005400  1.21631230  0.08630615
N   0.57530100  0.67974496 -0.38140250
C   0.29748170 -0.50051500  0.02716655
O  -0.86159700 -0.74250030  0.44643182
C   1.32730660 -1.62925170  0.05200999
O   2.48463870 -1.48897450 -0.23413351
H  -2.36759880  0.66772450  0.06264434
H  -1.16871060  1.63629900  1.04679540
H  -1.28392490  1.87511030 -0.75853250
H   1.52369690  0.89800155 -0.70169836
H   0.90346050 -2.61195090  0.35441267

