%chk=ts_freq.chk
%nprocshared=4
#P Opt=(TS,CalcAll,NoEigenTest,NoMicro,MaxCycles=150) Freq External='../../../../../production/external/horm.sh'

External--CalcAll initial TS guess: rxn74

0 1
C   0.33298728  1.23176780  0.14517501
C   1.20062110  0.06436777 -0.32548500
C   0.52584560 -1.22666030 -0.05038568
C  -0.86927646 -0.86063310  0.16567360
C  -0.98835790  0.53502095  0.00627542
N   0.51778954 -0.64713000 -1.38185230
H   0.42299202  2.08016510 -0.55168027
H   0.47384810  1.59462450  1.16393670
H   2.28331500  0.16593000 -0.42293580
H   0.95499057 -2.18507460  0.19507204
H  -1.21897420 -0.26092643  1.30964450
H  -1.70637460 -1.53219900 -0.05355437
H  -1.92940580  1.04074730 -0.19988394

