%chk=ts_freq.chk
%nprocshared=4
#P wB97X/6-31G(d) opt(ts,calcall,noeigentest,nomicro,maxcycles=150) freq

ReactOT exact pure Gaussian calcall TS opt+freq: rxn4772

0 1
C  -1.25140820 -0.88877743 -0.36353278
C   0.03377121 -0.22100340 -0.69225705
C  -0.15759301  1.40016260  0.96010756
C   0.72842080  1.01996390 -0.02138717
C   1.33137560 -0.55506530  0.06319267
O   2.43992200 -0.79551880 -0.52567590
H  -1.44599770 -0.92892504  0.70984250
H  -2.10869380 -0.40593746 -0.84709260
H  -1.21552410 -1.92494810 -0.72167045
H   0.20228301 -0.09670602 -1.77833400
H   0.16296706  1.41628900  1.99924390
H  -1.22520640  1.42111640  0.81666917
H   1.40699740  1.53065070 -0.67360660
H   1.09868630 -0.97130090  1.07450120

