%chk=ts_freq.chk
%nprocshared=4
#P Opt=(TS,CalcAll,NoEigenTest,NoMicro,MaxCycles=150) Freq External='../../../../../production/external/horm.sh'

External--CalcAll initial TS guess: rxn1879

0 1
O   1.80594100 -0.02174000  0.22485100
C   0.53558500  0.08823400  0.23778900
C  -0.75209900  0.82795700  0.59586900
C  -1.39490200 -0.56572500  0.22040800
N  -0.04052900 -0.95128300 -0.23496200
H  -0.82591500  1.09462700  1.65408400
H  -1.00503500  1.68426800 -0.03152900
H  -1.76187300 -1.10462800  1.09637800
H  -2.13162800 -0.57142700 -0.58665500
H   1.32663100 -1.28429900 -0.13334700

