%chk=ts_freq.chk
%nprocshared=4
#P wB97X/6-31G(d) opt(ts,calcall,noeigentest,nomicro,maxcycles=150) freq

GSM eqV2 pure Gaussian calcall TS opt+freq: rxn5002

0 1
O   2.59972700  0.43795500  0.23042700
C   1.36977800  0.67445300 -0.08523800
C   0.25520700 -0.26508200 -0.57652600
C  -0.38436800 -0.32805000  0.83383000
C  -1.70080800  0.08808200  0.19339700
N  -0.71975800  0.93323600 -0.60223800
C   0.11333900  1.12738200  0.67146800
H   2.27032700  1.13211800 -1.02168900
H   1.35711200  1.54139300 -1.09414700
H   0.21969200 -1.01228700 -1.36888100
H  -0.17435400 -1.03485100  1.64143400
H  -2.21411600 -0.65306200 -0.42727700
H  -2.41782300  0.67687700  0.77185500
H  -0.08308000  1.96321500  1.34354600

