%chk=ts_freq.chk
%nprocshared=4
#P Opt=(TS,CalcAll,NoEigenTest,NoMicro,MaxCycles=150) Freq External='../../../../../production/external/horm.sh'

External--CalcAll initial TS guess: rxn2195

0 1
C  -1.74547900  0.42536888 -0.24895497
N  -0.33635762  0.21809238 -0.51253210
C   0.40729707 -1.00656630 -0.17313766
C   1.72763590 -0.17519736 -0.14261085
C   0.65831184  0.83896124  0.18157797
O   0.41608074  0.84421910  1.48476200
H  -2.00853750  0.14858020  0.77919130
H  -1.95944960  1.48565790 -0.43998670
H  -2.32658310 -0.18808672 -0.93378925
H   0.28531697 -1.75601730 -0.96788275
H   0.23607944 -0.36894745  1.44098990
H   2.44599900 -0.33951995  0.66236800
H   2.19968600 -0.12654452 -1.12999480

