%chk=ts_freq.chk
%nprocshared=4
#P wB97X/6-31G(d) opt(ts,calcall,noeigentest,nomicro,maxcycles=150) freq

ReactOT exact pure Gaussian calcall TS opt+freq: rxn8964

0 1
N   0.42325130 -0.83859560  0.64699620
C   1.39411540 -0.14449732  0.09948450
O   1.11320710  0.83740604 -0.65186965
C  -0.84808240  0.75537260 -0.57362770
C  -0.92309460 -0.35730734  0.28225327
N  -2.10085370 -0.60982525  0.48502330
H   0.57399090 -1.62856270  1.25206740
H   2.42603700 -0.40915385  0.28479478
H  -1.03483560  0.63633966 -1.64335070
H  -1.02373540  1.75882390 -0.18177134

