%chk=ts_freq.chk
%nprocshared=4
#P wB97X/6-31G(d) opt(ts,calcfc,noeigentest,nomicro,maxcycles=150) freq

ReactOT exact pure Gaussian calcfc TS opt+freq: rxn1311

0 1
C  -1.10775070  0.95538384 -0.04406729
O  -0.91932064  0.31921610 -1.22847010
C  -0.16660164 -0.74519240 -1.00995620
C   1.26812770  0.52607960  0.50611377
O   0.88696800 -0.61452955  1.13764120
C  -0.04370671 -1.19999310  0.40348753
H  -2.07279160  0.68981550  0.40399460
H  -0.87631200  2.01032830 -0.04964434
H  -0.21978040 -1.47906840 -1.81531540
H   2.18822430  0.37554136 -0.07179763
H   1.24719450  1.41587150  1.11740800
H  -0.18425070 -2.25345250  0.65060590

