%chk=ts_freq.chk
%nprocshared=4
#P wB97X/6-31G(d) opt(ts,calcfc,noeigentest,nomicro,maxcycles=150) freq

GSM eqV2 pure Gaussian calcfc TS opt+freq: rxn7979

0 1
O   0.13729700  2.36272400 -0.24047300
C   0.30461100  1.17403800 -0.35795800
C  -0.64162900  0.17566500 -1.04430800
C  -0.10011200 -1.19267400 -0.68128200
C   1.09077400 -0.98970400  0.09544300
C   2.37907000 -0.20690400 -0.99954500
C   1.51846200  0.40664400  0.14465500
H  -0.58912800  0.40846100 -2.12023800
H  -1.67891600  0.36962600 -0.74607200
H  -0.70335800 -2.07984600 -0.54292000
H   1.27831800 -1.22018000 -1.27620600
H   1.60088900 -1.76856500  0.65543900
H   2.27954000  0.33369500 -1.94240500
H   3.39566300 -0.46894200 -0.71623000
H   2.05711600  0.84519600  0.98124400

