%chk=ts_freq.chk
%nprocshared=4
#P wB97X/6-31G(d) opt(ts,calcall,noeigentest,nomicro,maxcycles=150) freq

ReactOT exact pure Gaussian calcall TS opt+freq: rxn1523

0 1
N  -2.06300350  0.42011340  0.54925080
C  -0.84280694  0.72475190 -0.19397078
C   0.37783304  0.25136220  0.49958184
N   1.44748590 -1.40110230 -0.18206342
C   1.63488070  0.08299670 -0.19804670
N   2.48457050  0.84906940 -0.61505970
H  -2.82455900  1.04952060  0.30223160
H  -2.31274530 -0.55261500  0.47188800
H  -0.73649470  1.81671970 -0.25803130
H  -0.84060990  0.37637636 -1.23511580
H   0.33310997  0.21715894  1.58552890
H   1.22307700 -1.85023400 -1.05112290
H   2.11926220 -1.98411800  0.32492936

