%chk=ts_freq.chk
%nprocshared=4
#P wB97X/6-31G(d) opt(ts,calcfc,noeigentest,nomicro,maxcycles=150) freq

GSM eqV2 pure Gaussian calcfc TS opt+freq: rxn2104

0 1
O  -2.18500000  1.78525500  0.48655700
C  -1.01489300  1.90109300  0.30534800
C  -0.32314900  0.17944300  0.03449800
N   1.12075800 -0.08251000 -0.39628300
C   1.14113000  1.12693500 -0.22534800
O  -0.11280000  2.73720800  0.16171600
H  -0.49448300 -0.41483200  0.92873100
H  -0.94031000 -0.14991200 -0.80060300
H   2.06289700  1.70224700 -0.19497200

