%chk=ts_freq.chk
%nprocshared=4
#P wB97X/6-31G(d) opt(ts,calcall,noeigentest,nomicro,maxcycles=150) freq

ReactOT exact pure Gaussian calcall TS opt+freq: rxn8751

0 1
C  -2.41810320  0.30221897 -0.05062297
C  -0.67900530  0.23144260  0.07425328
C  -0.05808937 -0.91712075 -0.06392968
O   1.35056690 -0.98126125 -0.26471300
C   2.08480430 -0.01590583  0.21568820
N   3.33664900 -0.18656325 -0.17228472
C  -1.16250250  1.47615230  0.10327366
H  -3.10793540  0.96466947  0.47103873
H  -2.53075050 -0.66108626  0.48420238
H  -2.69856200  0.18824834 -1.09108940
H  -0.55909467 -1.88786710 -0.09072228
H   3.60552300 -0.94883660 -0.80097540
H   4.05487780  0.44745758  0.12244605
H  -1.21837890  1.98845180  1.06343510

