%chk=ts_freq.chk
%nprocshared=4
#P Opt=(TS,CalcAll,NoEigenTest,NoMicro,MaxCycles=150) Freq External='../../../../../production/external/horm.sh'

External--CalcAll initial TS guess: rxn1984

0 1
C  -1.74911100 -0.18140100 -0.38640100
C  -0.49579700  0.17315600  0.31721700
O   0.78543600 -0.94993400  0.23899900
C   1.66067400  0.22362000  0.11390200
C   0.48117300  1.20371600  0.11320000
O   0.43580200  2.41015400 -0.00540700
H  -2.45465000  0.62759900 -0.15948600
H  -1.64913000 -0.23958000 -1.47860200
H  -2.18497100 -1.11215800 -0.01279300
H   0.23637000 -0.72096900  1.14603800
H   2.17396500  0.14464200 -0.84509900
H   2.37571100  0.28632100  0.93732900

