%chk=ts_freq.chk
%nprocshared=4
#P Opt=(TS,CalcAll,NoEigenTest,NoMicro,MaxCycles=150) Freq External='../../../../../production/external/horm.sh'

External--CalcAll initial TS guess: rxn9228

0 1
C   1.77317900  0.16858800 -0.09815500
C   0.30404500  0.41841600  0.14102600
C  -0.75960700 -0.44321000 -0.43420400
C  -2.05634800 -0.34223600  0.01033600
O  -1.19227900 -0.94979700  2.05751600
C  -0.00986600 -0.55985600  2.07184400
H   2.22537300  0.83983000 -0.84800800
H   2.32476000  0.31372200  0.83356000
H   1.95227900 -0.86324200 -0.42133700
H   0.00330700  1.41357500  0.45977800
H  -0.32576300  0.41359500 -1.17776900
H  -0.39588800 -1.39344800 -0.83906000
H  -2.77817900 -1.11549200 -0.24152500
H  -2.45609800  0.58837700  0.39570000
H   0.27744400  0.38168200  2.58442200
H   0.81531500 -1.26560300  1.88030700

