%chk=ts_freq.chk
%nprocshared=4
#P wB97X/6-31G(d) opt(ts,calcfc,noeigentest,nomicro,maxcycles=150) freq

ReactOT exact pure Gaussian calcfc TS opt+freq: rxn3748

0 1
C   0.49859360 -0.75163734  0.38537950
C  -0.95658870 -1.04335400 -0.07343228
O  -1.74882720  0.13855244 -0.09620099
C  -1.08462360  1.30882750 -0.20194635
N   0.16160284  1.47009770 -0.42416370
C   0.93965286  0.34438285 -0.56306870
H   0.49512187 -0.43922922  1.42673970
H   1.11021070 -1.65494660  0.28938538
H  -0.95905540 -1.47984580 -1.08276620
H  -1.45565370 -1.71837100  0.62133520
H  -1.75352240  2.15987280 -0.10946737
H   2.47118520  0.96409230  0.30630510
H   2.28190420  0.70155840 -0.47809938

