%chk=ts_freq.chk
%nprocshared=4
#P wB97X/6-31G(d) opt(ts,calcfc,noeigentest,nomicro,maxcycles=150) freq

GSM eqV2 pure Gaussian calcfc TS opt+freq: rxn3214

0 1
O   1.83338000  0.57829700  0.08427900
C   2.36182500 -0.63125900  0.11509000
C   1.39666900 -1.69274100 -0.11757100
C  -0.33430400 -0.58896500  1.02051700
C  -1.53657200 -0.50935600  0.12320000
C  -1.30900500  0.58058100  1.11692200
H   0.65416300  0.03237700  0.67518200
H   3.13864800 -0.85850700  0.86536700
H   2.86661300 -0.94272700 -0.88422800
H   1.53254200 -2.70826000  0.25602100
H   0.70768100 -1.56287900 -0.94533800
H  -0.37030200 -1.28192200  1.85679800
H  -1.36924800 -0.29267500 -0.93063700
H  -2.35085100 -1.20726400  0.29977000
H  -0.96128400  1.53993200  0.74552900
H  -1.94416500  0.63485900  1.99802300

