%chk=ts_freq.chk
%nprocshared=4
#P wB97X/6-31G(d) opt(ts,calcfc,noeigentest,nomicro,maxcycles=150) freq

GSM eqV2 pure Gaussian calcfc TS opt+freq: rxn388

0 1
O   1.60696300  0.61062200  0.41747400
C   0.77371500  0.19592500 -0.65143700
C   0.37629400 -1.32906000 -0.51334500
C  -1.05457100 -1.11981000 -0.01459300
N  -1.30589900  0.17401900  0.34534300
C  -0.62672600  0.77505900 -0.57594400
H   1.09921200  0.49749000  1.23702600
H   1.29820200  0.46002800 -1.57067000
H   1.02619700 -1.87897900  0.18407100
H   0.35875700 -1.81238600 -1.48624300
H  -1.86251300 -1.80697600  0.19832800
H  -1.69337600  1.50494700  1.05772900
H  -1.06236500  1.35579500 -1.39335100

