%chk=ts_freq.chk
%nprocshared=4
#P Opt=(TS,CalcAll,NoEigenTest,NoMicro,MaxCycles=150) Freq External='../../../../../production/external/horm.sh'

External--CalcAll initial TS guess: rxn1050

0 1
C   1.86191600  0.27741700  0.02709400
C   0.46965100  0.24547400  0.57286600
C  -0.58005600  1.31516500  0.79176000
O  -1.62565400  0.26693100  0.73494600
C  -0.62618000 -0.61741800  0.54773300
O  -0.61939900 -1.88489100  0.72066900
H   2.54033400  0.79438000  0.71421700
H   2.24913100 -0.73759700 -0.11115300
H   1.91580300  0.79177800 -0.94199700
H   0.37411600 -1.15666400  1.26192600
H  -0.71199600  2.01833800 -0.03671500
H  -0.63190800  1.82423800  1.75630200

