%chk=ts_freq.chk
%nprocshared=4
#P Opt=(TS,CalcAll,NoEigenTest,NoMicro,MaxCycles=150) Freq External='../../../../../production/external/horm.sh'

External--CalcAll initial TS guess: rxn600

0 1
C  -2.25503700  0.06021300  1.05367200
C  -1.21334900  0.54376700  0.02491600
O  -1.40359800  1.81945200 -0.36191400
C   0.13123300  0.60435800  0.68457400
C   1.31888700 -0.05522200  0.23963200
C   1.37708900  1.32719400 -0.54441500
H  -2.19437900  0.65693000  1.97093600
H  -2.16727300 -1.00529200  1.30025600
H  -3.23256000  0.24486000  0.60025900
H  -1.18005300 -0.21493400 -0.79649600
H   0.30881800  1.78236900 -0.72345500
H   0.17774200  1.24866600  1.56156900
H   2.15950000 -0.18215300  0.91861400
H   1.16757000 -0.88572100 -0.44703000
H   1.65571400  1.13713000 -1.58410300
H   2.01066500  2.05728100 -0.04813100

