%chk=ts_freq.chk
%nprocshared=4
#P Opt=(TS,CalcAll,NoEigenTest,NoMicro,MaxCycles=150) Freq External='../../../../../production/external/horm.sh'

External--CalcAll initial TS guess: rxn4736

0 1
C   1.30498600 -0.31022700 -0.62576100
O  -0.07559500 -0.02899800 -0.56068800
C  -0.78767500 -0.97993400  0.18588000
C  -0.89209400 -0.65997800  1.66360800
C  -2.06700900 -0.50243800  0.75522700
O  -2.46337100  0.98460700  0.30172100
H   1.49217300 -1.23579000 -1.19382000
H   1.73112700 -0.42118700  0.38030900
H   1.78832700  0.52540300 -1.13924800
H  -0.72411400 -1.99065200 -0.21781300
H  -0.29628300  0.21502400  1.91764600
H  -0.97038000 -1.40942100  2.45009200
H  -3.27376000  0.28522100  0.31574200
H  -2.06085400  1.09500200 -0.58355000

