%chk=ts_freq.chk
%nprocshared=4
#P Opt=(TS,CalcAll,NoEigenTest,NoMicro,MaxCycles=150) Freq External='../../../../../production/external/horm.sh'

External--CalcAll initial TS guess: rxn5581

0 1
O   1.60868920  2.23478460 -0.50156550
C   1.35828020  1.15201630 -0.66329306
C   1.53169940 -0.77607540  0.25798982
N   0.19904205 -0.79577290  0.02556133
C  -0.80855495 -0.25234490  0.97560734
C  -1.51921800  0.37308303 -0.25145802
C  -0.31262848 -0.09738237 -1.03297000
H   2.14709800 -1.22203760 -0.50710005
H   1.81148140 -1.03015500  1.28920030
H  -0.35173145  0.45173293  1.66987130
H  -1.35712490 -1.05593370  1.51723460
H  -1.62320520  1.46542190 -0.21074332
H  -2.50438710 -0.06074188 -0.50050175
H  -0.17944027 -0.38659507 -2.06783300

