%chk=ts_freq.chk
%nprocshared=4
#P Opt=(TS,CalcAll,NoEigenTest,NoMicro,MaxCycles=150) Freq External='../../../../../production/external/horm.sh'

External--CalcAll initial TS guess: rxn10038

0 1
C  -0.75123000 -1.12758600 -0.66590800
C   0.38025000 -0.83289500  0.55143500
C   1.42269300 -0.97716700  1.55693600
O   1.39868600  0.18182200  2.65592900
C   0.39016000  1.19029500  2.27169300
N   0.27149300  1.76355700  2.81974200
C   0.02126300  0.23733800  0.67529700
H  -1.75571000 -0.91237700 -0.06909000
H  -0.89955200 -2.16394600 -0.99357800
H  -0.79594000 -0.47890600 -1.52756100
H   2.07645100 -1.82321800  1.76711600
H  -0.05401800  1.17041200  2.27370900
H   0.17300000  2.65145700  2.42327700
H  -0.96848500  0.52653400  0.47939700

