%chk=ts_freq.chk
%nprocshared=4
#P wB97X/6-31G(d) opt(ts,calcfc,noeigentest,nomicro,maxcycles=150) freq

ReactOT exact pure Gaussian calcfc TS opt+freq: rxn4900

0 1
C   2.25134850 -0.05232939  0.79508010
O   1.06386820  0.45059330  0.20261848
C   0.08918285 -0.74657184 -0.34609620
O   0.58555734 -1.78838480 -0.61720510
C  -1.14457850 -0.17058231 -0.05752427
C  -1.52067520  1.12084980 -0.75523955
O  -2.19582270 -1.04443060  0.13008976
H   2.00619390 -0.77663490  1.58711390
H   2.80114580  0.78693956  1.20442080
H   2.80502600 -0.58097965  0.02617612
H   0.04523485  0.41089323  0.78904180
H  -0.67875350  1.81543240 -0.84576154
H  -2.34482800  1.61142080 -0.23572970
H  -1.86051820  0.88636726 -1.78988250
H  -1.90238140 -1.92258300 -0.08710214

