%chk=ts_freq.chk
%nprocshared=4
#P wB97X/6-31G(d) opt(ts,calcall,noeigentest,nomicro,maxcycles=150) freq

GSM eqV2 pure Gaussian calcall TS opt+freq: rxn6546

0 1
C   1.67341400 -1.76690200 -0.76724100
C   0.39522900 -1.13997400 -0.22381600
O   0.68188000 -0.56794700  1.03283200
C  -0.28533100 -0.14734900 -1.17019900
C  -2.05185800  0.92728500  0.08507600
C  -2.75385000 -0.19717100  0.36077200
C  -0.88276900 -1.87051200 -0.33666800
H   2.46605400 -1.00928400 -0.72064900
H   1.56985100 -2.06914000 -1.81517100
H   1.95882200 -2.62523000 -0.15622800
H   0.54477500  0.38394500  0.94302200
H   0.71040300  0.36995600 -1.39643100
H  -0.54104000  0.31996900 -2.12015400
H  -1.58091200  1.43142200  0.93269700
H  -2.26726200  1.57260500 -0.75426200
H  -3.45109600 -0.61703100 -0.36373800
H  -2.94037500 -0.48905300  1.38873500
H  -0.77698400 -2.68111700 -1.05318900
H  -1.23638800 -2.29734600  0.60542200

