%chk=ts_freq.chk
%nprocshared=4
#P wB97X/6-31G(d) opt(ts,calcfc,noeigentest,nomicro,maxcycles=150) freq

ReactOT exact pure Gaussian calcfc TS opt+freq: rxn9704

0 1
C   1.66682620 -0.49636298 -0.28984463
C   0.63592090  0.17471330  0.60017870
C   0.07173385  1.63163020 -0.62048510
C  -1.02818120  0.84722390 -0.19890180
O  -1.44604810 -0.18530157 -0.95994544
C  -1.27557900 -1.28795150 -0.00797124
C  -0.48952907 -0.62908650  1.05820970
H   2.08269500 -1.35973310  0.23167144
H   2.47164600  0.18731877 -0.56616545
H   1.19860370 -0.85535070 -1.21471750
H   1.05373410  0.79673740  1.37426320
H   0.16973660  2.62916540 -0.18595685
H   0.57153624  1.41808520 -1.55431200
H  -1.72621120  1.27349970  0.53307550
H  -0.74410710 -2.10846640 -0.52675855
H  -2.26558000 -1.65064870  0.31365230
H  -0.94719740 -0.38547240  2.01400780

