%chk=ts_freq.chk
%nprocshared=4
#P wB97X/6-31G(d) opt(ts,calcfc,noeigentest,nomicro,maxcycles=150) freq

ReactOT exact pure Gaussian calcfc TS opt+freq: rxn1518

0 1
C  -2.27897480 -0.18671100 -0.30430087
C  -1.28576580  0.43019360  0.63188964
C   0.59482610  0.57166153  0.46535152
O   0.17730312 -0.53188860  0.00307790
O   1.89746250  0.81015044  0.28470886
C   2.64560820 -0.23031941 -0.34097810
H  -3.28783800  0.14929083 -0.00235046
H  -2.10968900  0.15731151 -1.33230690
H  -2.23051620 -1.27832850 -0.29493430
H  -1.38181020  1.52775860  0.66140765
H  -1.32013300  0.04752269  1.65084030
H   3.66561700  0.15661143 -0.40667352
H   2.65063520 -1.11645170  0.30166513
H   2.26327470 -0.50680140 -1.31739690

