%chk=ts_freq.chk
%nprocshared=4
#P wB97X/6-31G(d) opt(ts,calcfc,noeigentest,nomicro,maxcycles=150) freq

ReactOT exact pure Gaussian calcfc TS opt+freq: rxn3206

0 1
O   2.07758360 -0.25692335 -0.00507653
C   0.79322410  0.17770854 -0.04260658
N  -0.07627202 -0.87845780 -0.25599298
C  -1.36016800 -0.89637464  0.16969198
C  -1.83206940  0.22110157 -0.31121004
N   0.51963110  1.41855960  0.05036572
H   2.07001070 -1.22134230 -0.10663143
H  -1.83656080 -1.80972340  0.53051830
H  -1.70703980  1.28606700 -0.28818944
H   1.35166070  1.95938500  0.25913100

