%chk=ts_freq.chk
%nprocshared=4
#P wB97X/6-31G(d) opt(ts,calcall,noeigentest,nomicro,maxcycles=150) freq

ReactOT exact pure Gaussian calcall TS opt+freq: rxn6949

0 1
C   2.36447290 -0.89562964 -1.49404080
C   1.66953160 -0.23168740 -0.47733223
C   1.27645470  0.75015580  0.27747142
C  -0.06837323  1.21424440  0.69324220
C  -1.28890400  0.50697820  0.16025240
C  -1.97491860 -0.52101220  0.94694000
O  -2.52302480  0.78054330  0.78636800
H   2.67826910 -1.91630570 -1.39188400
H   1.07012030 -1.20568780 -0.71283770
H   2.55705710 -0.39083280 -2.44720670
H  -0.11618702  2.29282670  0.43662718
H  -0.12433346  1.21789620  1.79637170
H  -1.36063500  0.48770487 -0.93254300
H  -2.54159740 -1.31150820  0.42756638
H  -1.61793230 -0.77768590  1.93100520

