%chk=ts_freq.chk
%nprocshared=4
#P Opt=(TS,CalcAll,NoEigenTest,NoMicro,MaxCycles=150) Freq External='../../../../../production/external/horm.sh'

External--CalcAll initial TS guess: rxn5577

0 1
N  -1.51158000 -0.41864400 -0.16721500
C  -0.27800200 -0.06250600  0.28772800
C   0.25003100  1.25553800  0.47344000
O   1.25443500  1.19403500  1.53068200
C   1.84334700  0.55163700  0.52475700
O   2.92310000  0.45476500  0.05761300
N   0.74346800 -0.87929100  0.52918000
H  -1.58933300 -1.23208300 -0.76827300
H  -2.13124700  0.34461400 -0.44704200
H  -0.22087900  2.21392000  0.33897200
H   0.71264900 -1.82873800  0.21177800

