%chk=ts_freq.chk
%nprocshared=4
#P wB97X/6-31G(d) opt(ts,calcfc,noeigentest,nomicro,maxcycles=150) freq

ReactOT exact pure Gaussian calcfc TS opt+freq: rxn3642

0 1
C   1.26864840 -0.60397310  0.86808690
N   0.21886347  0.00450993  0.09325028
C  -0.95320890 -0.51666820 -0.15097989
N  -1.73031430  0.12097603 -0.97999024
C   0.25973478  1.53821240 -0.69691414
O   1.27459180  2.14841870 -0.52264850
H   1.98888620  0.19856715  1.09701260
H   1.79292620 -1.39918070  0.33400562
H   0.87727660 -0.99710137  1.81786470
H  -1.24716470 -1.44772880  0.32165596
H  -2.69669440 -0.18184781 -1.03937150
H  -1.05354510  1.13581570 -1.14197200

