%chk=ts_freq.chk
%nprocshared=4
#P wB97X/6-31G(d) opt(ts,calcall,noeigentest,nomicro,maxcycles=150) freq

GSM eqV2 pure Gaussian calcall TS opt+freq: rxn9883

0 1
C   2.58663000 -0.14789700 -0.37289600
C   1.55777200  0.44237500 -0.10771600
C   0.11422400  1.23294600  0.13335900
C   0.19056900  0.09607000  0.76771800
N  -2.34569400  0.68605500  0.03855500
N  -1.97814100  1.57577300 -0.77491300
C  -0.65267000  1.98085700 -0.69933400
H   3.54251600 -0.58020700 -0.57501600
H   0.44428000 -0.30760000  1.73356200
H  -3.30178300  0.42541000 -0.23876400
H  -0.34863300  2.86894900 -1.22553200

