%chk=ts_freq.chk
%nprocshared=4
#P Opt=(TS,CalcAll,NoEigenTest,NoMicro,MaxCycles=150) Freq External='../../../../../production/external/horm.sh'

External--CalcAll initial TS guess: rxn6046

0 1
N   1.91512300 -0.61494200  0.01853900
C   0.57734900 -0.40560800  0.07187700
N  -0.23018100 -1.48238700  0.28397700
C  -1.57556500 -1.32438900  0.58055400
C  -2.05172100  0.00344200  0.55015300
C  -1.19003700  0.99420000  0.11219100
N   0.12565200  0.82495100 -0.11050400
H   2.49444500  0.14638400 -0.30149800
H   2.25474500 -1.55827400 -0.09297600
H  -0.67988400 -2.20919700  1.09478700
H  -3.06680100  0.24164400  0.84361800
H  -1.55157900  2.01178500 -0.04710300

