%chk=ts_freq.chk
%nprocshared=4
#P Opt=(TS,CalcAll,NoEigenTest,NoMicro,MaxCycles=150) Freq External='../../../../../production/external/horm.sh'

External--CalcAll initial TS guess: rxn5808

0 1
C   1.63286540 -0.78114240  0.04430342
C   0.53124547  0.06369436  0.61002620
C  -0.46195084  1.90567050  0.11427037
O   0.06885060  0.96839577 -1.03056280
C  -1.24649250  0.76554304 -0.43076760
C  -0.93781954 -0.40720493  0.47643057
O  -1.10680710 -1.69298320 -0.06110845
H   2.52813960 -0.19209075 -0.12648244
H   1.35316280 -1.29046600 -0.88146377
H   1.86599990 -1.53550670  0.80541290
H   0.80673206  0.55794376  1.54617120
H  -0.69408494  2.84881260 -0.39285892
H  -2.07046270  0.83174120 -1.13261500
H  -1.43767800 -0.38900146  1.44573260
H  -0.83170010 -1.65340600 -0.98648834

