%chk=ts_freq.chk
%nprocshared=4
#P wB97X/6-31G(d) opt(ts,calcfc,noeigentest,nomicro,maxcycles=150) freq

GSM eqV2 pure Gaussian calcfc TS opt+freq: rxn7681

0 1
C  -1.68025500 -0.02594200 -0.20539500
C  -0.52863900 -0.56738000 -1.00949000
O  -0.64600400 -1.32972000 -1.94308900
C   0.87362200 -0.11636600 -0.59778700
O   1.05042500  0.95502200  0.27097100
C   1.62380100 -0.87900700  0.41299900
O   1.22395400 -0.88537100  1.63709100
H  -1.58104800 -0.35504600  0.83682800
H  -1.64495500  1.06853600 -0.19916900
H  -2.62190500 -0.38651800 -0.62084400
H   1.46361800 -0.02934600 -1.52195300
H   0.78233800  0.13659100  1.49817900
H   2.58111400 -1.36108800  0.19470300

