%chk=ts_freq.chk
%nprocshared=4
#P wB97X/6-31G(d) opt(ts,calcfc,noeigentest,nomicro,maxcycles=150) freq

GSM eqV2 pure Gaussian calcfc TS opt+freq: rxn9058

0 1
N   0.86124400  0.00638500  1.74940900
C   1.18020200 -0.02710700  0.59560000
O  -0.10754400 -2.18703200  0.24407200
C  -0.45310000 -2.35373600  1.44942200
C  -1.19548800 -0.20956900  1.73409700
O  -1.81486300  0.37910200  2.54018600
H   0.79237100  1.26332200  0.91729900
H   1.66250400 -0.12969400 -0.37214000
H   0.26943500 -2.22487300  2.27488100
H  -1.36279000 -2.92041700  1.74050900
H  -1.20656900 -0.22905100  0.62170300

