%chk=ts_freq.chk
%mem=6GB
%nprocshared=4
#P opt(ts,calcall,noeigentest,nomicro,maxcycles=150) freq External='../../../../../production/external/horm.sh'

ReactOT exact C eqV2-EFH calcall TS opt+freq: rxn5393

0 1
C  -2.01070480 -0.02404425 -0.00882953
C  -0.73711920 -0.61245054 -0.62730515
O  -0.30552152  0.07734133 -1.76423450
C   0.35757720 -0.77550730  0.39652887
C   1.72944780 -0.53922480  0.08047184
C   1.20058550  1.05284640  0.57241035
O   0.94453600  1.87508710 -0.35534793
H  -2.38102000 -0.64258030  0.81616294
H  -1.83605710  0.99602510  0.33356577
H  -2.78988080  0.02635006 -0.77926856
H  -0.95387137 -1.64131130 -0.97318580
H   0.05483931  0.93701500 -1.43318530
H   0.25503890  0.66507196  1.20192950
H   0.10245837 -1.25165880  1.36502910
H   1.97418390 -0.45611080 -0.97280470
H   2.48526100 -0.94528204  0.75597190
H   1.91024670  1.25843310  1.39209140

