%chk=ts_freq.chk
%nprocshared=4
#P wB97X/6-31G(d) opt(ts,calcall,noeigentest,nomicro,maxcycles=150) freq

ReactOT exact pure Gaussian calcall TS opt+freq: rxn6011

0 1
O   1.95842950 -0.40256816  0.14546467
C   0.67853487 -0.09389855  0.04993198
C   0.25580170  1.23517930 -0.02951425
N  -1.00314860  1.55796460 -0.12699267
N  -1.98536900  0.59760190 -0.16221365
C  -1.58748900 -0.67410280 -0.07714772
N  -0.27533555 -1.02641450  0.02695318
H   2.04965020 -1.36096310  0.19402948
H   0.97478000  2.05398490 -0.01152079
H  -1.06585400 -1.88678350 -0.00899025

