%chk=ts_freq.chk
%nprocshared=4
#P wB97X/6-31G(d) opt(ts,calcfc,noeigentest,nomicro,maxcycles=150) freq

ReactOT exact pure Gaussian calcfc TS opt+freq: rxn4101

0 1
N  -2.01600030  0.29713600  0.12933272
C  -0.74706410  0.02521975  0.10111759
O   0.07707520  0.78310040  0.76554440
C   0.85634930 -0.50030684  0.30635867
O   1.09358330 -1.38224180  1.09940740
N   1.62651940 -0.15889703 -0.78206840
H  -2.66371130 -0.31172252 -0.36319482
H  -2.39230920  1.09586320  0.62363230
H   2.49948880 -0.66177260 -0.82515496
H   1.66606860  0.81362140 -1.05497520

