%chk=ts_freq.chk
%nprocshared=4
#P wB97X/6-31G(d) opt(ts,calcall,noeigentest,nomicro,maxcycles=150) freq

ReactOT exact pure Gaussian calcall TS opt+freq: rxn356

0 1
C  -1.93957230  1.05325720 -0.37109214
C  -1.40444080 -0.34320600 -0.03661919
N  -0.01868852 -0.48817152 -0.47794960
C   0.89920753 -1.70729860  0.35336828
C   1.04756430 -0.23451859  0.47621083
C   2.26343800  0.47699280 -0.06969909
H  -2.98872330  1.14639320 -0.08368450
H  -1.36791170  1.82324720  0.15458319
H  -1.84025560  1.22860960 -1.44756350
H  -1.49766780 -0.52500080  1.04730420
H  -2.01162200 -1.10361420 -0.54179996
H   0.18875182 -2.04785900  1.12644800
H   0.30376510 -1.45295770 -0.91418490
H   0.64608794  0.24091016  1.38234220
H   3.07716400  0.44144773  0.66392833
H   2.04036470  1.52621270 -0.29155776
H   2.60253860 -0.03444416 -0.97003440

