%chk=ts_freq.chk
%nprocshared=4
#P wB97X/6-31G(d) opt(ts,calcfc,noeigentest,nomicro,maxcycles=150) freq

GSM eqV2 pure Gaussian calcfc TS opt+freq: rxn6949

0 1
C   1.86131800 -0.21508800 -1.60626600
C   1.32209300  0.44140300 -0.55554400
C   0.88591500  1.40380800  0.19371700
C  -0.43914900  2.01352400  0.44683600
C  -1.62910300  1.27314700 -0.12341400
C  -2.40824300  0.34752400  0.69683000
O  -2.90572200  1.63583400  0.36721800
H   2.51036400 -1.06540000 -1.38910700
H   0.76483400 -0.72831200 -0.52393200
H   1.88540100  0.16435500 -2.63198500
H  -0.33633100  2.97635400 -0.08306000
H  -0.61008400  2.27967700  1.49768800
H  -1.58412000  1.08237200 -1.19881800
H  -2.93196800 -0.48454200  0.22853900
H  -2.13985500  0.20136000  1.74109000

