%chk=ts_freq.chk
%nprocshared=4
#P wB97X/6-31G(d) opt(ts,calcfc,noeigentest,nomicro,maxcycles=150) freq

GSM eqV2 pure Gaussian calcfc TS opt+freq: rxn1318

0 1
O  -0.66280700  2.33711700  1.06598400
C   0.07292600  1.45777600  0.31860100
C   1.28393200 -0.48906100  0.05778000
O   0.02926000 -0.79811400 -0.38979900
C  -0.74384200  0.37334300 -0.26633600
N  -1.99979300  0.42682700 -0.35454400
H  -1.54830700  1.94718500  1.21611000
H   0.78568400  1.98219700 -0.29648000
H   1.86630800 -1.42371800 -0.07157800
H   0.84759300  0.30786400  1.08400100
H  -2.40333300 -0.47192300 -0.61896300

