%chk=ts_freq.chk
%nprocshared=4
#P wB97X/6-31G(d) opt(ts,calcfc,noeigentest,nomicro,maxcycles=150) freq

ReactOT exact pure Gaussian calcfc TS opt+freq: rxn5849

0 1
C   2.17578050  0.05887616 -0.03962586
C   0.68679960 -0.12634793 -0.02885198
C   0.03058610 -1.19616640  0.44213805
C  -1.46512300 -1.25917210  0.36151320
C  -1.46512580  0.55752830 -1.07132030
C  -0.14041112  1.01013550 -0.58847976
O  -0.12951407  2.11768300  0.30791327
H   2.42821930  1.02685240  0.41874436
H   2.56541940  0.04432501 -1.06177210
H   2.67961220 -0.73272634  0.53304140
H   0.56031024 -2.05938100  0.85594920
H  -1.96382270 -0.69052040  1.15627470
H  -1.86461820 -2.26170350  0.34400540
H  -1.72128980 -0.82460990 -0.68139590
H  -2.27655900  1.15477560 -0.61409140
H   0.36985663  1.40364500 -1.48600260
H  -0.47012037  1.77680650  1.15196030

