%chk=ts_freq.chk
%nprocshared=4
#P Opt=(TS,CalcAll,NoEigenTest,NoMicro,MaxCycles=150) Freq External='../../../../../production/external/horm.sh'

External--CalcAll initial TS guess: rxn6194

0 1
O  -1.96916680  0.24737702 -0.24698228
C  -0.98931587 -0.67329180  0.16210458
C   0.40967490 -0.14323181 -0.17011823
C   0.46378368  1.28762010  0.88365835
C   0.82325880  1.62031290 -0.26132584
C   1.48741980 -1.01445440  0.31379232
N   2.32148050 -1.74201080  0.65308140
H  -1.89519210  1.02326540  0.32529512
H  -1.05537710 -0.90840530  1.23131800
H  -1.15715680 -1.58916250 -0.40896140
H   0.44924030 -0.14094776 -1.26160860
H   1.11135050  2.03292900 -1.22025360

