%chk=ts_freq.chk
%nprocshared=4
#P wB97X/6-31G(d) opt(ts,calcfc,noeigentest,nomicro,maxcycles=150) freq

GSM eqV2 pure Gaussian calcfc TS opt+freq: rxn9201

0 1
C   1.92995400  0.97570600 -0.44017600
C   0.66771300  0.50810900  0.22295300
O   0.13047900  1.36663100  1.26285700
C  -0.63188100  1.16374900  0.15854200
C  -1.86382500  1.61074700 -0.36896700
O  -2.84756000  1.73522900  0.47164400
H   1.93397700  2.05671500 -0.58535200
H   2.07324500  0.46628200 -1.39955000
H   2.78965700  0.70633300  0.18672600
H   0.60499400 -0.55877300  0.44492700
H  -1.81889900 -0.10095600  1.55256000
H  -2.07516400  1.54096200 -1.43335700
H  -0.71276800  2.38657100 -0.51088600
H  -2.37662100  1.30679900  1.33633200

