%chk=ts_freq.chk
%nprocshared=4
#P wB97X/6-31G(d) opt(ts,calcfc,noeigentest,nomicro,maxcycles=150) freq

ReactOT exact pure Gaussian calcfc TS opt+freq: rxn3908

0 1
C  -2.55665970  0.29497240  0.41067126
C  -0.78740610  0.25934270 -0.91304500
C   0.24515606  1.08652010 -0.15942623
C   1.21002610 -0.06926439 -0.54576470
C   2.34683000 -0.39609724  0.38866138
C  -0.02428300 -1.01392690 -0.54701996
H  -1.98668870 -0.21530572  1.18960560
H  -3.47782300 -0.24260550  0.17514856
H  -2.76737520  1.32846400  0.70280683
H  -2.05177280  0.37502256 -0.71108526
H   0.14516750  1.08504430  0.94175870
H   0.44206238  2.10556530 -0.52028580
H   1.58628420  0.07063069 -1.56163780
H   2.85975360 -1.31695630  0.08923375
H   3.08541510  0.41478354  0.41487530
H   1.97705410 -0.54249230  1.42122380
H  -0.07503132 -1.84689140 -1.26071900
H  -0.17070964 -1.37680590  0.48499852

