%chk=ts_freq.chk
%nprocshared=4
#P wB97X/6-31G(d) opt(ts,calcfc,noeigentest,nomicro,maxcycles=150) freq

ReactOT exact pure Gaussian calcfc TS opt+freq: rxn7797

0 1
C  -2.75643300 -0.30950955  0.06694838
C  -1.23730520 -0.24819367  0.02048569
C  -0.58926540  0.86688220 -0.85245270
C   0.17555950  1.37165900  0.38505387
C   2.76148400 -1.20917080 -0.36579776
C   2.99980900  0.06591871 -0.08713908
C  -0.46110106  0.33488566  1.16311260
H  -3.17623830 -0.66730845 -0.88292160
H  -3.18172500  0.68859255  0.29466543
H  -3.09024000 -1.02113600  0.84754205
H  -0.80987830 -1.25711620 -0.22422385
H   0.12575366  0.45522788 -1.59500610
H  -1.26563850  1.57298040 -1.32248220
H   2.70036800 -1.54899850 -1.39886340
H   2.63285680 -1.96120390  0.40313450
H   3.12265180  0.81522120 -0.86280715
H   3.07289620  0.40255165  0.93851423
H  -0.70301030  1.62812540  1.28830770
H  -0.32054368  0.02059262  2.18392970

