%chk=ts_freq.chk
%nprocshared=4
#P wB97X/6-31G(d) opt(ts,calcall,noeigentest,nomicro,maxcycles=150) freq

ReactOT exact pure Gaussian calcall TS opt+freq: rxn2738

0 1
C  -1.26125630  0.16539714 -0.27125344
C  -0.43215440  1.08957660  0.21431945
N   0.79873765  0.58093214  0.64338570
C   1.40148300 -0.35263600 -0.19493061
N   0.66265875 -1.29356070 -0.70070195
C  -0.39772293 -0.92336260  0.09692580
H  -2.21715970  0.19018500 -0.78560440
H  -0.59659210  2.17135260  0.30763084
H   2.47347330 -0.26400787 -0.39962623
H  -0.43146724 -1.36387650  1.08985480

