%chk=ts_freq.chk
%nprocshared=4
#P wB97X/6-31G(d) opt(ts,calcfc,noeigentest,nomicro,maxcycles=150) freq

ReactOT exact pure Gaussian calcfc TS opt+freq: rxn6590

0 1
N   2.29409310  1.20612100 -0.52162826
C   1.13344260  0.46555007 -0.45002076
O   0.05142460  1.06819840 -0.15250874
N   1.02625730 -0.81486780 -0.73943290
C  -1.11475920 -0.57481635 -0.51675045
C  -1.56945030 -0.67598295  0.90723985
O  -1.93045380  0.52679770  1.50487460
H   2.25402640  2.11094830 -0.08047666
H   3.17143900  0.70734084 -0.38348258
H   1.86179210 -1.28571010 -1.08787800
H  -1.04544660 -1.52013220 -1.02548050
H  -1.62780980  0.18138754 -1.12216640
H  -0.81014794 -1.23237700  1.47082140
H  -2.49223450 -1.29901610  0.87803790
H  -1.20217290  1.13655880  1.31885140

