%chk=ts_freq.chk
%nprocshared=4
#P Opt=(TS,CalcAll,NoEigenTest,NoMicro,MaxCycles=150) Freq External='../../../../../production/external/horm.sh'

External--CalcAll initial TS guess: rxn1875

0 1
N   1.31146620 -1.61575060 -1.35519590
C   1.01399410 -0.61662710 -0.75197166
C   1.20436120  0.61995890  0.04735640
C  -0.26185486  0.85419667  0.30054700
C  -1.02173460 -0.25818083  0.96768105
C  -0.91795750 -0.23860306 -0.53027590
H   1.65815070  1.39814810 -0.56230396
H   1.84239880  0.44551682  0.91623510
H  -0.64927894  1.86917230  0.34560075
H  -1.97289450  0.00320414  1.41703570
H  -0.45410877 -0.99499590  1.54215630
H   0.04880303 -1.39868770 -1.19190160
H  -1.80134460 -0.06735197 -1.14496340

