%chk=ts_freq.chk
%mem=6GB
%nprocshared=4
#P Opt=(TS,CalcAll,NoEigenTest,NoMicro,MaxCycles=150) Freq External='../../../../../production/external/horm.sh'

External--CalcAll initial TS guess: rxn7957

0 1
O  -1.80584160 -1.33555950  1.75131020
C  -1.16083650 -0.60098380  1.08535730
C  -0.59422300  0.59114980  0.69595450
C   0.86603620  0.73595680  0.44303670
C   0.27871840  0.36177063 -0.85017750
C   0.22543798 -1.05691300 -1.17535850
N   0.96404600 -1.31172990 -2.10384750
H  -0.33524168 -1.67597320 -0.36325830
H  -1.27721600  1.44264910  0.68767290
H   1.49883160  0.00046126  0.92294633
H   1.25638770  1.75803240  0.54201305
H   0.08390066  1.09113920 -1.63564910

