%chk=ts_freq.chk
%nprocshared=4
#P wB97X/6-31G(d) opt(ts,calcall,noeigentest,nomicro,maxcycles=150) freq

ReactOT exact pure Gaussian calcall TS opt+freq: rxn3015

0 1
N   1.75343680 -0.27945638  0.28340340
C   0.41391546 -0.10751303  0.03410353
C  -0.45092976  0.92924505  0.16728435
N  -1.68930200  0.46666372 -0.28601018
C  -1.57613800 -0.85320634 -0.63175476
O  -0.26143852 -1.20451380 -0.38691056
H   2.16103580 -1.05932240 -0.22705382
H   2.30898100  0.55872280  0.25347215
H  -0.29747742  1.95229580  0.50102030
H  -2.36208320 -0.40291536  0.29244550

