%chk=ts_freq.chk
%nprocshared=4
#P wB97X/6-31G(d) opt(ts,calcfc,noeigentest,nomicro,maxcycles=150) freq

GSM eqV2 pure Gaussian calcfc TS opt+freq: rxn2422

0 1
C  -1.16245700 -1.00865800  1.66505200
O  -0.11739300  0.21517000  1.48965700
C  -0.46138800  0.88094200  0.16682800
C   0.88206000  1.15277400 -0.38113800
C   1.00761700 -0.27977100  0.09746500
C   2.21475400 -0.65817100  0.93429200
H  -0.85038500 -1.71724400  2.44297600
H  -1.28142500 -1.51799100  0.69989200
H  -2.13064100 -0.56276600  1.92671800
H  -1.37763300  1.45959600  0.27683100
H   1.54642500  1.88428700  0.09626500
H   0.91308700  1.24119900 -1.46599300
H   0.63315100 -1.06244400 -0.56021900
H   2.10282900 -1.63653400  1.41157500
H   2.44473200  0.09576200  1.69377000
H   3.06813300 -0.72860300  0.24033100

