%chk=ts_freq.chk
%mem=6GB
%nprocshared=4
#P opt(ts,calcall,noeigentest,nomicro,maxcycles=150) freq External='../../../../../production/external/horm.sh'

GSM eqV2 C eqV2-EFH calcall TS opt+freq: rxn591

0 1
C  -2.91389600  0.35767700 -0.19471700
C  -1.39442700  0.22432800 -0.33800900
C  -0.66294800  0.33700900  0.99090600
C   1.21960500 -1.44405400  0.49410100
O   2.15789300 -0.62835900  0.85271700
C   2.04230300  0.65167300  0.36076200
H  -3.31835400 -0.43242900  0.44561100
H  -3.41516200  0.29247700 -1.17274700
H  -3.18767500  1.31603400  0.25463300
H  -1.02633800  0.99734100 -1.02824500
H  -1.18535800 -0.74139200 -0.81880400
H  -0.86139900  1.31803300  1.45117100
H  -0.98305400 -0.43692500  1.68908500
H   1.18300900 -2.37211100  1.04949100
H   0.72560200 -1.33009200 -0.46289500
H   2.84197800  1.27977600  0.73884600
H   0.72996100  0.69092600  0.83663100
H   1.87467600  0.69498600 -0.72049500

