%chk=ts_freq.chk
%nprocshared=4
#P Opt=(TS,CalcAll,NoEigenTest,NoMicro,MaxCycles=150) Freq External='../../../../../production/external/horm.sh'

External--CalcAll initial TS guess: rxn3688

0 1
O   0.99153400  1.96902400 -0.05774700
C   0.24028300  1.11364400 -0.60936600
C  -1.07734900  0.83368400 -0.86641700
C  -0.60489000 -1.32784700 -0.64759100
O   0.46045800 -1.44884800 -1.28027400
C   1.42919900  0.33574700 -0.86457100
H  -1.30689000  0.53791200 -1.87677800
H  -1.84151500  1.42103600 -0.34590400
H  -0.62166400 -1.37531000  0.45210900
H  -1.56964200 -1.60805900 -1.10834100
H   2.06567800  0.56017400 -1.70492400
H   1.88211300 -0.16729300 -0.01502100

