%chk=ts_freq.chk
%mem=6GB
%nprocshared=4
#P Opt=(TS,CalcAll,NoEigenTest,NoMicro,MaxCycles=150) Freq External='../../../../../production/external/horm.sh'

External--CalcAll initial TS guess: rxn8026

0 1
C  -1.36686980 -1.30707060  0.13432130
C  -0.44515133 -0.13468081  0.44437864
C   0.91046860 -0.17302781 -0.29902524
C   1.80251960  0.88409066  0.09230275
O   0.79556850  2.57453130 -0.16048280
C  -1.03893730  1.19060030  0.14249460
N  -0.32912496  2.15982340 -0.05854890
H  -2.31253360 -1.22047160  0.67268220
H  -0.88482684 -2.24160900  0.43762990
H  -1.56703850 -1.34963460 -0.94322390
H  -0.23466133 -0.10182743  1.52136550
H   1.43082450 -1.08999680  0.05430125
H   0.70731324 -0.33568317 -1.35825980
H   2.53244950  1.14495640 -0.67993560

