%chk=ts_freq.chk
%nprocshared=4
#P wB97X/6-31G(d) opt(ts,calcall,noeigentest,nomicro,maxcycles=150) freq

ReactOT exact pure Gaussian calcall TS opt+freq: rxn532

0 1
O  -1.04147540  1.81254650  0.14234357
C  -0.70506656  0.51784414  0.60468376
C  -1.11102250 -0.65500575 -0.29591447
C   0.80115503 -1.26730310  0.21063260
C   1.44410010 -0.14129826 -0.54692600
C   0.75771840  0.16995860  0.75097860
H  -0.44888900  1.97402620 -0.63215476
H  -1.20768540  0.43240340  1.57252400
H  -1.12205550 -0.46998346 -1.36786620
H  -1.99712620 -1.20979940  0.02558706
H  -0.27834710 -1.69160040 -0.08568917
H   1.03958380  0.22166980 -1.48933410
H   2.52794050 -0.16878060 -0.50626945
H   1.34117000  0.47532237  1.61740430

