%chk=ts_freq.chk
%nprocshared=4
#P wB97X/6-31G(d) opt(ts,calcfc,noeigentest,nomicro,maxcycles=150) freq

ReactOT exact pure Gaussian calcfc TS opt+freq: rxn2788

0 1
C  -1.74409650 -0.74023074  0.00597697
C  -0.73910445  0.39725890 -0.00134200
O  -0.36320356  0.79359670  1.26057260
C   1.53386510  1.02844620 -0.06029347
C   1.62122010 -0.29600784  0.38349026
C   0.61097980  0.12198204 -0.70659983
H  -2.63754920 -0.44506250  0.56073880
H  -1.30449510 -1.62051680  0.49720109
H  -2.02746320 -1.04531000 -1.01185360
H  -1.15725730  1.24249300 -0.59883370
H   2.16492770  1.89213870 -0.21718970
H   2.50089430 -0.91987460  0.38596040
H   0.84833870 -0.30864006  1.26857600
H   0.69294333 -0.10027297 -1.76640380

