%chk=ts_freq.chk
%nprocshared=4
#P wB97X/6-31G(d) opt(ts,calcfc,noeigentest,nomicro,maxcycles=150) freq

GSM eqV2 pure Gaussian calcfc TS opt+freq: rxn9513

0 1
C   0.15794200 -1.85085100  0.08223700
C  -0.52500700 -0.51858600  0.19314700
C  -0.94960500 -0.00753400  1.56732700
C  -0.91669200  1.50646100  1.36846700
O   0.01714200  1.73425400  0.25804700
C   0.25523200  0.59229300 -0.32773600
C   1.92222200 -1.20161900  0.51692700
H  -1.44493200 -2.33020800  0.11642300
H   0.31429600 -2.20743400 -0.92943600
H   0.20605400 -2.55996700  0.89719100
H  -1.46455600 -0.60395600 -0.42299300
H  -0.21895700 -0.31349500  2.32246800
H  -1.93569400 -0.37985800  1.84922200
H  -0.55348600  2.09480000  2.21259800
H  -1.87615800  1.90505600  1.02186000
H   0.77889900  0.64069500 -1.27528800
H   1.89143900 -1.13267900  1.60763400
H   2.43214100 -2.13792400  0.26056200
H   2.52385200 -0.38439800  0.10586300

