%chk=ts_freq.chk
%nprocshared=4
#P wB97X/6-31G(d) opt(ts,calcfc,noeigentest,nomicro,maxcycles=150) freq

ReactOT exact pure Gaussian calcfc TS opt+freq: rxn1048

0 1
C  -1.25020470 -0.81401790  0.35790410
C  -0.47866810  0.23947492 -0.40293363
C   0.65252936 -0.07032531 -1.12734070
C   1.93368050 -0.00274421 -1.21584210
C   2.14724160  0.67267400 -0.03847236
N   1.81623900  1.22411200  0.93940950
H  -0.57542150 -1.54306030  0.82095313
H  -1.92741060 -1.37686700 -0.30679685
H  -1.85798680 -0.35776450  1.14609230
H   0.59588240  0.96114796  0.61434853
H  -1.05588110  1.06737040 -0.78732180

