%chk=ts_freq.chk
%nprocshared=4
#P wB97X/6-31G(d) opt(ts,calcfc,noeigentest,nomicro,maxcycles=150) freq

ReactOT exact pure Gaussian calcfc TS opt+freq: rxn235

0 1
C   1.75394490 -0.40167725  0.32608238
C   0.54959170  0.15548208 -0.42738947
O  -0.30077160 -0.90653150 -0.80910790
C  -1.65264450 -0.52789300 -0.56626270
C  -1.70931280  0.70839190  0.30384110
C  -0.35606200  1.05868280  0.38404940
H   2.31367440 -1.08146430 -0.32599935
H   2.41908880  0.41466138  0.64405954
H   1.42685520 -0.94974600  1.21163630
H   0.88589406  0.71989006 -1.31014960
H  -2.16230700 -0.26016086 -1.51653670
H  -2.18691300 -1.38431450 -0.13763076
H  -0.98636216  0.48964715  1.35587510
H   0.00532398  1.96503210  0.86753260

