%chk=ts_freq.chk
%nprocshared=4
#P wB97X/6-31G(d) opt(ts,calcfc,noeigentest,nomicro,maxcycles=150) freq

ReactOT exact pure Gaussian calcfc TS opt+freq: rxn6601

0 1
O   2.15855720  1.25079150 -1.58334520
C   1.66526470  1.02670760 -0.51231460
C   0.89035505 -0.25352997 -0.19539894
O   0.90316550 -0.53433600  1.13578130
C  -1.18752010 -1.14450310  0.35843992
C  -1.37766550  0.19935090  0.73093090
C  -0.60614157 -0.17780900 -0.56282455
H   1.67575320  1.76995280  0.34317583
H   1.31795130 -1.04368960 -0.85462004
H  -1.68615620 -2.11065720  0.40715498
H  -2.33758660  0.67728937  0.90925380
H  -0.44516724  0.39525932  1.39716710
H  -0.97080980 -0.05482668 -1.57340060

