%chk=ts_freq.chk
%nprocshared=4
#P wB97X/6-31G(d) opt(ts,calcall,noeigentest,nomicro,maxcycles=150) freq

GSM eqV2 pure Gaussian calcall TS opt+freq: rxn2226

0 1
O   2.16662700  1.96697100  0.07780500
C   1.02087300  1.40589000  0.52347800
C  -0.24836800  1.65004100 -0.04548100
C   0.07133300 -0.46080000 -0.13861500
O  -0.47818100 -0.68705700 -1.35088400
C   1.44383200 -0.63190100  0.04742700
H   2.01525000  2.21640000 -0.84902300
H   1.09434800  1.18753700  1.58652300
H  -0.26998900  2.07134900 -1.04843900
H  -1.06476600  1.92462500  0.61742500
H  -0.57772400 -0.64417000  0.72314900
H  -1.37984600 -0.34241400 -1.34881700
H   2.09386600 -0.61952400 -0.82002000
H   1.80991900 -1.11421100  0.94807400

