%chk=ts_freq.chk
%nprocshared=4
#P wB97X/6-31G(d) opt(ts,calcall,noeigentest,nomicro,maxcycles=150) freq

GSM eqV2 pure Gaussian calcall TS opt+freq: rxn8725

0 1
O  -0.32849000  1.17986300 -0.46546900
C  -0.90089200  0.25230400  0.01419500
O  -2.23528600  0.08963500 -0.00374800
C  -2.40048900 -0.95034000  0.98079600
C  -1.10212100 -1.26191400  1.53698600
C   0.24807100 -1.14091700  0.51060600
O   0.14790600 -1.12146600  1.99384200
H  -2.80565900 -1.84138200  0.48581700
H  -3.09884400 -0.66086200  1.77155900
H   1.05706600 -0.46130800  0.23826100
H   0.33668400 -2.12837100  0.05806500

