%chk=ts_freq.chk
%nprocshared=4
#P wB97X/6-31G(d) opt(ts,calcall,noeigentest,nomicro,maxcycles=150) freq

ReactOT exact pure Gaussian calcall TS opt+freq: rxn7093

0 1
O  -1.14642050 -0.57643070  1.47163750
C  -0.82578576 -0.08000468  0.23748371
C  -0.63251036  1.31956220  0.08715051
O   1.61778870  1.08845590 -0.46379796
C   1.81727280 -0.03395144  0.00877167
N   1.04058160 -1.13913400 -0.06481665
C  -0.19794446 -0.97922690 -0.77691480
H  -0.62482090 -1.37939300  1.57938060
H  -1.84942200  0.73284670 -0.08346187
H  -0.45234650  1.69961510 -0.90458310
H  -0.68880480  1.97191420  0.94513434
H   2.74858450 -0.19958131  0.58714950
H  -0.10835481 -0.47793840 -1.75402740
H  -0.69781756 -1.94673360 -0.86910600

