%chk=ts_freq.chk
%nprocshared=4
#P wB97X/6-31G(d) opt(ts,calcfc,noeigentest,nomicro,maxcycles=150) freq

GSM eqV2 pure Gaussian calcfc TS opt+freq: rxn3881

0 1
C   2.15384200 -0.55921200  0.26831900
C   0.31036300  0.26148900 -0.65619800
C   0.01308500 -0.30826300  0.53565600
O  -0.00965900 -0.41040800  1.74312900
C  -1.62897300 -0.44874100 -0.69886100
C  -2.66469100 -0.55660500  0.41921000
H   2.75171500 -0.74904000 -0.62347100
H   2.63180100  0.26779100  0.83559200
H   2.10188200 -1.42149300  0.89339500
H   0.61736800 -0.21531900 -1.59011800
H   0.03673900  1.31023900 -0.69684800
H  -1.46522600 -1.38496400 -1.24677100
H  -1.91024700  0.29712100 -1.44593700
H  -2.78094300  0.40614600  0.94682300
H  -3.64184900 -0.80146900 -0.00102700
H  -2.38778900 -1.30188300  1.17336400

