%chk=ts_freq.chk
%nprocshared=4
#P wB97X/6-31G(d) opt(ts,calcfc,noeigentest,nomicro,maxcycles=150) freq

GSM eqV2 pure Gaussian calcfc TS opt+freq: rxn3305

0 1
C  -1.15566700 -1.00923300 -0.62663700
C   0.03937900 -1.18695500  0.28375100
C   1.45665100 -1.23652100  0.00017200
C   2.40251100 -2.11387800  0.16964500
C   1.45232800  0.24643300 -0.33472200
N   1.62556500  1.39824000 -0.39132300
H  -1.72942500 -1.94707500 -0.62186800
H  -1.80389800 -0.22089900 -0.24923100
H  -0.87210900 -0.78585700 -1.66155000
H  -0.17183400 -1.26468100  1.36033700
H   3.47071900 -1.90439200  0.15333300

