%chk=ts_freq.chk
%nprocshared=4
#P Opt=(TS,CalcAll,NoEigenTest,NoMicro,MaxCycles=150) Freq External='../../../../../production/external/horm.sh'

External--CalcAll initial TS guess: rxn3748

0 1
C   0.75211000 -1.06526900  0.70260300
C  -0.69222800 -1.09336500  0.16766100
O  -1.49015600 -0.03602000  0.73685200
C  -0.81441300  0.99279700  1.29237800
N   0.42991400  1.21980400  1.13345600
C   1.12031500  0.35329100  0.36196000
H   0.71871500 -1.26614800  1.78272200
H   1.35955200 -1.82058500  0.20048100
H  -0.71022600 -0.97581900 -0.91959000
H  -1.19076500 -2.02253800  0.44832900
H  -1.45964700  1.65067600  1.86479000
H   3.00997000  0.44607900  0.93950400
H   2.45783500  0.54863100  0.26727000

