%chk=ts_freq.chk
%nprocshared=4
#P wB97X/6-31G(d) opt(ts,calcall,noeigentest,nomicro,maxcycles=150) freq

GSM eqV2 pure Gaussian calcall TS opt+freq: rxn9799

0 1
O  -2.08873400  0.58445000  0.62415700
C  -1.00769200  1.15514300  0.04436500
N  -0.39269500  2.07644700  0.85903900
C   0.54246600  2.83055300  0.37566200
O   0.36441200  4.10813100 -0.08168600
C   1.82481800  2.45473300  0.09561400
N  -0.61868100  0.86661700 -1.13526100
H  -2.18315400  0.99096100  1.49913400
H  -0.53892700  4.17746000 -0.44371000
H   2.79949600  2.86331300  0.30777900
H  -1.28570700  0.25077400 -1.59532500

