%chk=ts_freq.chk
%nprocshared=4
#P Opt=(TS,CalcAll,NoEigenTest,NoMicro,MaxCycles=150) Freq External='../../../../../production/external/horm.sh'

External--CalcAll initial TS guess: rxn4066

0 1
N  -1.96236630  0.03633047  0.04779682
C  -0.56002164 -0.07165797 -0.03929881
C   0.25297890 -1.18036890 -0.28430635
C   1.56927700 -0.50404555 -0.09197078
N   1.47950570  0.88428240  0.09813745
N   0.19444760  1.04905570  0.15119389
H  -2.35423660 -0.89741975  0.01042996
H  -2.35418650  0.57940810 -0.71925350
H   1.36545810 -1.00538310  0.91285720
H   2.53053780 -0.86146800 -0.46154848
H  -0.16139396  1.97126660  0.37596262

