%chk=ts_freq.chk
%nprocshared=4
#P wB97X/6-31G(d) opt(ts,calcfc,noeigentest,nomicro,maxcycles=150) freq

ReactOT exact pure Gaussian calcfc TS opt+freq: rxn1648

0 1
C   1.50926080  0.47436234  0.41173240
C   0.23561240  0.30285898 -0.38580313
C  -0.26177046 -1.13058140 -0.65805990
C  -1.66115310 -0.98582130  0.02566128
O  -1.28995100 -0.39196447  1.27154120
C  -1.04706170  0.63925445  0.37439275
H   1.44104650 -0.06997220  1.36680470
H   1.71897910  1.53246590  0.63163114
H   2.37345670  0.06462239 -0.13003395
H   0.30336967  0.86439530 -1.33035970
H   0.31391862 -1.91529950 -0.15386917
H  -0.36106163 -1.36965780 -1.72033270
H  -1.92406450  0.36295283 -0.44042450
H  -1.35058200  1.62238440  0.73711956

