%chk=ts_freq.chk
%nprocshared=4
#P wB97X/6-31G(d) opt(ts,calcfc,noeigentest,nomicro,maxcycles=150) freq

ReactOT exact pure Gaussian calcfc TS opt+freq: rxn3092

0 1
C  -1.62844660 -0.57003580  0.20990825
C  -0.34971806 -0.02747573 -0.37463674
C   0.27064386  1.19879600  0.26589265
O   1.69208000  0.98386323  0.14212304
C   1.87893860 -0.28768784 -0.22860670
N   0.79566556 -0.96088200 -0.41528730
H  -1.85344560 -1.56429540 -0.20519646
H  -2.47564630  0.07132550 -0.04465251
H  -1.57555470 -0.66536050  1.30886570
H   0.28370035 -1.02313980 -1.36091320
H   0.03128073  1.30032620  1.34107600
H   0.03278071  2.14890670 -0.22033782
H   2.89772150 -0.60434070 -0.41823494

