%chk=ts_freq.chk
%nprocshared=4
#P wB97X/6-31G(d) opt(ts,calcfc,noeigentest,nomicro,maxcycles=150) freq

GSM eqV2 pure Gaussian calcfc TS opt+freq: rxn2065

0 1
C  -1.26558100 -0.94975900 -0.41169300
N  -1.92949700  0.24019500  0.00854700
C  -0.59061700  0.36158600 -0.61650100
C   0.68603700  0.11271100 -0.07114400
C   2.08119900  0.37074400  0.17382000
O   1.15610800 -0.26114200  1.12339100
H  -0.90345800 -1.58178800  0.40528600
H  -0.48267900 -1.50873600 -1.39543100
H  -1.95794100  0.30786400  1.02652400
H  -0.59448400  0.79273000 -1.61184900
H   0.62403800 -1.41423000 -1.31476400
H   2.81692500 -0.30474700 -0.25203300
H   2.41466900  1.36102000  0.46234400

