%chk=ts_freq.chk
%nprocshared=4
#P wB97X/6-31G(d) opt(ts,calcall,noeigentest,nomicro,maxcycles=150) freq

ReactOT exact pure Gaussian calcall TS opt+freq: rxn8680

0 1
C  -2.09593990 -0.47142464 -0.28283200
C  -0.79673785  0.21927951 -0.08774542
N  -0.53423053  1.51492600  0.36941582
C   0.90703940  1.15742400  0.56876516
C   0.53903220 -0.21238214 -0.02025900
N   1.13106750 -1.50256190 -0.00627906
O   2.49119020 -1.25895660  0.13349257
H  -2.76296100  0.04708376 -0.95686543
H  -2.58729100 -0.57084480  0.70322550
H  -1.88631390 -1.50808790 -0.64269950
H   0.67797506 -0.53873730 -1.17696200
H  -0.77782947  2.31178300 -0.20702305
H   1.17900360  1.15479760  1.64332620
H   1.59969120  1.75550470 -0.02364324
H   2.91630430 -2.09780360 -0.01391657

