%chk=ts_freq.chk
%nprocshared=4
#P wB97X/6-31G(d) opt(ts,calcfc,noeigentest,nomicro,maxcycles=150) freq

ReactOT exact pure Gaussian calcfc TS opt+freq: rxn8624

0 1
N   2.28259830  0.17940594 -0.12367717
C   1.04395200  0.17907587  0.03142019
C   0.20487621 -1.04439530  0.16429508
N  -0.89286727 -1.10431060  0.98344190
C  -1.34311820 -0.46738340 -0.18547670
C  -1.03274010  0.91305610  0.00014214
O   0.23929475  1.29140590  0.20475043
H   2.67321780  1.11094160 -0.16422537
H   0.70271710 -1.96942850 -0.12579310
H  -2.15664080 -0.84918565 -0.79128420
H  -1.72128950  1.76081810  0.00640671

