%chk=ts_freq.chk
%nprocshared=4
#P wB97X/6-31G(d) opt(ts,calcall,noeigentest,nomicro,maxcycles=150) freq

ReactOT exact pure Gaussian calcall TS opt+freq: rxn4922

0 1
C   2.60470940  0.78386550 -0.30073880
O   1.20131970  0.75387496 -0.12957707
C  -1.05765910 -0.05901784  0.15930957
C  -1.54709960 -0.53815484 -1.14615070
C  -0.96138823 -0.98864030  1.31169760
C  -0.92700315  1.28951330  0.36732045
N  -0.17560531  2.21121760  0.37370440
H   3.07145550  1.16559590  0.60987210
H   2.96857800 -0.23482612 -0.44656720
H   2.85394930  1.40029780 -1.16882670
H  -1.06855850 -1.48243500 -1.41373440
H  -1.43462620  0.18883827 -1.95031390
H  -2.63307830 -0.73439944 -1.07934780
H  -1.97629030 -1.28118900  1.63279650
H  -0.46107036 -0.56411600  2.18162400
H  -0.45763338 -1.91042500  0.99893224

