%chk=ts_freq.chk
%nprocshared=4
#P wB97X/6-31G(d) opt(ts,calcall,noeigentest,nomicro,maxcycles=150) freq

ReactOT exact pure Gaussian calcall TS opt+freq: rxn7521

0 1
O   2.05116080 -0.61929540 -0.09392692
C   1.35002930  0.50931080 -0.57233566
C   0.06354415  0.89717710  0.08897906
C  -0.77147580 -0.76771090  0.41345346
N  -0.08444551  0.24972695  1.31771340
C  -1.52240100  0.08233821 -0.70806070
O  -2.66431300  0.42563805 -0.45036080
H   2.05692650 -0.54474807  0.87149540
H   1.93918670  1.43079070 -0.43684658
H   1.23351910  0.40154535 -1.65367250
H  -0.06788395 -1.52297850  0.10127455
H  -1.61175350 -1.17115020  0.99910086
H  -0.82157433  0.68329644  1.86454270
H  -1.15051950 -0.05394044 -1.74135630

