%chk=ts_freq.chk
%mem=6GB
%nprocshared=4
#P Opt=(TS,CalcAll,NoEigenTest,NoMicro,MaxCycles=150) Freq External='../../../../../production/external/horm.sh'

External--CalcAll initial TS guess: rxn8765

0 1
C   1.61354600  1.23108950 -0.00455282
C   0.43784170  0.72044320 -0.69253194
N   1.72685350 -0.01575320 -0.82643247
C   1.12938170 -1.07757560  0.03420811
C  -0.24379125 -0.38816540  0.04728863
C  -1.41380380 -0.20342886  0.84385043
C  -1.61187740 -0.93494993 -0.37519798
H   1.71916900  1.16142920  1.07594940
H   2.13814800  2.07653300 -0.46319110
H  -1.00465460  1.72533900 -0.53233970
H   1.58537460 -1.13628350  1.03360460
H   1.13864980 -2.04179430 -0.47494490
H  -1.57540880  1.49600420  0.07171741
H  -1.80309680 -0.13600533  1.85888670
H  -1.77543220 -2.01697250 -0.34581280
H  -2.06089970 -0.45990950 -1.25050180

