%chk=ts_freq.chk
%nprocshared=4
#P Opt=(TS,CalcAll,NoEigenTest,NoMicro,MaxCycles=150) Freq External='../../../../../production/external/horm.sh'

External--CalcAll initial TS guess: rxn4698

0 1
C   1.05591700  1.03500200  0.17036600
C   0.64556000 -0.22196700 -0.33435500
C   0.05106900 -1.40128300  0.40258800
C  -0.77890100 -0.79320400 -0.50904900
C  -2.42709700 -0.10202100  0.16663700
N  -2.41576500 -0.16523100  0.17298400
H   1.07095900  1.77662400 -0.66189800
H   2.12292700  0.92582700  0.56569900
H   0.46168200  1.45297300  0.90620400
H   1.33312100 -0.48732000 -1.13735500
H  -0.30277200 -1.31627900  1.53784500
H   0.41898700 -2.30570300  0.10658000
H  -0.84400900 -1.23187200 -1.28207000

