%chk=ts_freq.chk
%nprocshared=4
#P wB97X/6-31G(d) opt(ts,calcall,noeigentest,nomicro,maxcycles=150) freq

GSM eqV2 pure Gaussian calcall TS opt+freq: rxn4787

0 1
O   1.65367400 -0.64384900  1.95115800
C   1.39335500 -0.08807600  0.92749000
O   1.29758200 -1.02345600 -0.52644900
C   0.11741600 -1.26739100 -0.02760100
C  -1.15330300 -0.64306000 -0.38926500
C  -0.42320400  0.47701600  0.35538800
H   1.86057000  0.78562600  0.47054000
H   0.04169400 -2.07066900  0.71288000
H  -1.46970200 -0.50712700 -1.42521700
H  -1.94126200 -1.07039000  0.22511600
H   0.04254100  1.12697600 -0.38063300
H  -0.99162000  0.99211600  1.12536200

