%chk=ts_freq.chk
%nprocshared=4
#P Opt=(TS,CalcAll,NoEigenTest,NoMicro,MaxCycles=150) Freq External='../../../../../production/external/horm.sh'

External--CalcAll initial TS guess: rxn4887

0 1
C   1.88277100 -0.60132500  0.38149300
C   0.97161600 -0.45413600 -0.80154300
O  -0.07771700 -1.38602700 -0.93959700
C  -0.62032800 -0.24712200 -0.38331000
N  -1.12023800 -0.10790400  0.83655400
C  -0.87106600  0.95775100 -1.17505500
N  -1.32117400  1.90565700 -0.42459400
H   1.28683700 -0.68889600  1.30018200
H   2.51741100  0.27661000  0.47305400
H   2.52884100 -1.47843800  0.26568000
H   1.40480900 -0.24160700 -1.77199500
H  -1.06774400 -0.92348400  1.42533200
H  -0.71223500  1.02256300 -2.26057100
H  -1.66593900  2.77456500 -0.80438100
H  -1.53112900  1.28459600  0.59750100

