%chk=ts_freq.chk
%nprocshared=4
#P Opt=(TS,CalcAll,NoEigenTest,NoMicro,MaxCycles=150) Freq External='../../../../../production/external/horm.sh'

External--CalcAll initial TS guess: rxn6246

0 1
C  -1.07705200 -0.89928800  0.36985400
C  -0.83409100  0.09585000 -0.66372000
C  -0.35323800  1.43479500 -0.12121000
N   0.94917700  1.13842500  0.44514600
C   1.55058800 -0.06847000  0.19789700
O   1.96731700 -1.08310800  0.58198600
O   1.79062900 -0.42394600 -0.71290900
H  -1.01722300 -0.67663700  1.43059900
H  -1.37778600 -1.90809700  0.09506800
H  -2.35137000  0.08243700 -0.14970000
H  -0.95220300 -0.08102600 -1.75171100
H  -1.01461400  1.77385500  0.69950800
H  -0.33818100  2.22134000 -0.90193600
H   1.48644700  2.02611600  0.59126000

