%chk=ts_freq.chk
%nprocshared=4
#P wB97X/6-31G(d) opt(ts,calcfc,noeigentest,nomicro,maxcycles=150) freq

ReactOT exact pure Gaussian calcfc TS opt+freq: rxn6272

0 1
C   2.23478400 -0.09773935 -0.25478154
O   1.28467140  0.75438420 -0.84105563
C   0.03706385  0.49624458 -0.55802584
C  -0.22401680 -0.65838706  0.25962466
N  -1.57399010 -0.31896406  0.67749730
C  -1.89107680  0.88221985  0.16411516
N  -0.95495680  1.40199300 -0.60137886
H   3.19645300  0.37007126 -0.44653090
H   2.19957000 -1.08830170 -0.70994560
H   0.85191894 -0.53385430  0.85577035
H  -0.14055450 -1.67652710 -0.14445229
H  -2.17818120 -0.88943410  1.24397390
H  -2.84168500  1.35829470  0.35518932

