%chk=ts_freq.chk
%nprocshared=4
#P wB97X/6-31G(d) opt(ts,calcfc,noeigentest,nomicro,maxcycles=150) freq

GSM eqV2 pure Gaussian calcfc TS opt+freq: rxn2909

0 1
C   1.51481500 -1.09667000  0.83144800
O   0.30604400 -0.58914000  1.33903600
C  -1.04049900  0.17847300  0.17530600
C  -0.67904600  1.47344300  0.57253000
C  -1.15849000 -0.76002100 -0.95132600
C  -2.12745100 -0.80952100  0.22678100
H   1.85722000 -1.95604800  1.42263800
H   1.41044300 -1.42746600 -0.21358500
H   2.30566500 -0.33300600  0.85227500
H  -0.10782900  2.08069900 -0.12842700
H  -1.35658000  2.00342600  1.23801600
H   0.17735300  0.65026300  1.30091100
H  -1.51724700 -0.33611200 -1.88716300
H  -0.44701600 -1.57114200 -1.06499300
H  -2.03721100 -1.62976800  0.92915900
H  -3.13646300 -0.43198000  0.07515100

