%chk=ts_freq.chk
%nprocshared=4
#P wB97X/6-31G(d) opt(ts,calcall,noeigentest,nomicro,maxcycles=150) freq

ReactOT exact pure Gaussian calcall TS opt+freq: rxn9910

0 1
C  -2.33070900 -0.13792464  0.04426157
C  -0.84212870  0.05291361 -0.04142086
C  -0.18846694  1.23275740  0.01818911
N   1.22467430  0.95574373 -0.13325875
C   1.34777830 -0.50775180 -0.05820354
N   2.61308570 -0.59282315  0.33994097
C   0.10060915 -1.05575340 -0.13847640
H  -2.71091220 -0.64713480 -0.85785270
H  -2.59611940 -0.76734460  0.90136940
H  -2.84689600  0.81492436  0.12965606
H  -0.56484085  2.24596930 -0.01292823
H   1.54234270  1.23067370 -1.09195130
H   2.31997040  0.76386340  0.46844867
H   3.08267880 -1.48487540  0.45756745
H  -0.15106617 -2.10323760 -0.02534152

