%chk=ts_freq.chk
%nprocshared=4
#P wB97X/6-31G(d) opt(ts,calcfc,noeigentest,nomicro,maxcycles=150) freq

GSM eqV2 pure Gaussian calcfc TS opt+freq: rxn2656

0 1
C   1.63149200  0.53465200  0.81885900
C   0.48165900 -0.35115600  0.49504600
O  -0.02688600 -1.25398600  1.37184200
C  -1.22054300 -1.47124300  0.61026500
C  -0.71792400 -1.07477700 -0.79495600
O  -1.19667700 -0.03076800 -1.48485100
H   1.24849200  1.39660600  1.36046700
H   2.45211200  0.07367600  1.41331500
H   2.07034100  0.87758500 -0.13504500
H   0.56703300 -1.27336200 -0.65124400
H  -2.03754400 -0.80333300  0.92213000
H  -1.52717200 -2.50350500  0.71798000
H  -0.86872300 -1.97624700 -1.45978800
H  -1.15171800  0.70203500 -0.86781600

