%chk=ts_freq.chk
%nprocshared=4
#P wB97X/6-31G(d) opt(ts,calcfc,noeigentest,nomicro,maxcycles=150) freq

GSM eqV2 pure Gaussian calcfc TS opt+freq: rxn7896

0 1
C  -2.74127700  0.22152200  0.21311200
C  -1.22386000  0.27613100  0.34713900
N  -0.59982100  1.43157900  0.50719700
O  -0.61115600 -0.82720900  0.36245600
C   1.53301400 -0.47492700  0.64649700
C   1.53165000  0.32032000 -0.48453600
O   1.06269000  1.50460400 -0.40946200
H  -3.13762300 -0.35238300  1.05458600
H  -3.18784000  1.21692700  0.21059500
H  -3.00997700 -0.30900800 -0.70509600
H  -1.12313000  2.25975400  0.25207100
H   1.29974700 -0.01764400  1.60146600
H   1.87042000 -1.50040800  0.63357900
H   1.63286800 -0.12533700 -1.48171400

