%chk=ts_freq.chk
%nprocshared=4
#P Opt=(TS,CalcAll,NoEigenTest,NoMicro,MaxCycles=150) Freq External='../../../../../production/external/horm.sh'

External--CalcAll initial TS guess: rxn5483

0 1
O   2.26729660 -0.86300650  0.43088198
C   1.36459100 -0.03351281 -0.06612685
C   0.22137345  0.24124856  0.71090350
C  -0.81289744  1.17255660  0.05897821
C  -1.68277420 -0.01729632 -0.23109925
C  -1.03807930 -0.93989830  0.59609294
O  -1.09432390 -2.00746580  1.15452270
H   3.04944940 -0.90271100 -0.16117638
H   0.42323646 -0.63609390 -1.40405730
H   1.72277980  0.67234230 -0.83076920
H   0.40664127  0.27726140  1.77359280
H  -1.23136380  1.91369140  0.74629850
H  -0.43492943  1.71461800 -0.82418220
H  -0.45124745 -0.55729556 -1.36933470
H  -2.70975260 -0.03443804 -0.58452480

