%chk=ts_freq.chk
%nprocshared=4
#P wB97X/6-31G(d) opt(ts,calcfc,noeigentest,nomicro,maxcycles=150) freq

ReactOT exact pure Gaussian calcfc TS opt+freq: rxn5367

0 1
C  -1.99040470 -0.47492796 -0.53245490
C  -1.03208040  0.46055700  0.13112749
O  -1.22627880 -0.08892367  1.91661130
C   0.36694930  0.19134758  0.16471748
C   1.26080100 -0.58565680 -0.74294580
C   2.28934620  0.47145580 -0.33386892
O   1.28193780  1.26794680  0.28999782
H  -2.98348140 -0.41746938 -0.08917479
H  -2.04996250 -0.19157556 -1.59207440
H  -1.63334440 -1.49915280 -0.49074787
H  -1.35448530  1.48032500  0.28541598
H  -1.12510990  0.67612370  2.50769350
H  -0.14091258 -0.28360733  1.48379160
H   1.50848100 -1.60914130 -0.45285678
H   1.00798790 -0.54357330 -1.81089720
H   2.78848170  1.03418850 -1.12926900
H   3.03207600  0.11208358  0.39493436

