%chk=ts_freq.chk
%nprocshared=4
#P wB97X/6-31G(d) opt(ts,calcall,noeigentest,nomicro,maxcycles=150) freq

ReactOT exact pure Gaussian calcall TS opt+freq: rxn6546

0 1
C   2.09054100 -0.81404670 -0.42132244
C   0.71854967 -0.32194430  0.08631281
O   0.73705770 -0.30028152  1.50823180
C   0.45458480  0.98450345 -0.56368226
C  -1.70947890  1.40419920  0.55002440
C  -2.21855280  0.11189798  0.37780526
C  -0.31908210 -1.18565000 -0.38134575
H   2.85336500 -0.08187881 -0.13925318
H   2.11027600 -0.89130163 -1.51963230
H   2.31141100 -1.78982900  0.02235169
H   1.32721970  0.42913260  1.73733300
H   1.34694390  1.54664300 -0.85330665
H  -0.34286076  1.07923130 -1.30245200
H  -1.23255090  1.72927530  1.46670950
H  -1.94694110  2.15275980 -0.20427340
H  -2.81503030 -0.15377326 -0.48857358
H  -2.25235600 -0.53624380  1.26091860
H  -0.35768450 -1.44888080 -1.43933710
H  -0.75541110 -1.91381290  0.30349160

