%chk=ts_freq.chk
%nprocshared=4
#P Opt=(TS,CalcAll,NoEigenTest,NoMicro,MaxCycles=150) Freq External='../../../../../production/external/horm.sh'

External--CalcAll initial TS guess: rxn1836

0 1
C  -1.06953220 -0.53052820 -0.07148410
C   0.06296354 -0.58346990  0.92409384
C   1.27264510 -0.30301920  0.01355988
O   0.74986464  0.75070685 -0.82607110
C  -0.46850094  0.83229620 -0.12831071
H  -2.06576320 -0.60901600  0.36338082
H  -0.96175590 -1.06330410 -1.01359310
H  -0.15015635  0.90243730  1.06547310
H   1.53548970 -1.18990500 -0.57933974
H   2.15940570  0.05574219  0.54157250
H  -1.06466020  1.73805990 -0.28928140

