%chk=ts_freq.chk
%nprocshared=4
#P wB97X/6-31G(d) opt(ts,calcfc,noeigentest,nomicro,maxcycles=150) freq

GSM eqV2 pure Gaussian calcfc TS opt+freq: rxn10054

0 1
N   0.05934500 -0.88589400 -3.31170700
C  -0.91509200 -0.96999700 -3.94138400
C  -2.11810600 -1.29840300 -4.68935800
O  -2.89522300 -1.54340100 -2.67146000
C  -2.57780200 -0.23197700 -2.61950800
C  -2.66031200  0.66945400 -4.00017700
C  -3.39039800 -0.44976600 -4.63696400
H  -1.78124500 -2.00842600 -5.45666900
H  -2.20240100  0.39363600 -1.79545300
H  -3.17284900  1.60669100 -3.73636300
H  -1.73186400  0.96404200 -4.48461200
H  -3.62785300 -1.09825000 -3.68965400

