%chk=ts_freq.chk
%mem=6GB
%nprocshared=4
#P opt(ts,calcall,noeigentest,nomicro,maxcycles=150) freq External='../../../../../production/external/horm.sh'

ReactOT exact C eqV2-EFH calcall TS opt+freq: rxn7210

0 1
C  -1.85194420 -0.44395348  0.01967154
C  -1.47410170  0.82965183 -0.66095010
C  -0.40957102 -0.06210959 -0.08316748
C   0.57663405 -0.88125420 -0.91584533
C   1.62279360 -0.70676810  0.88108850
C   1.77880820  0.78329790  0.73420286
C   0.43028540  0.23771739  1.10688590
H  -2.21718670 -1.26251160 -0.61228263
H  -2.32752060 -0.38940674  0.99861175
H  -1.56542340  0.88082300 -1.74311580
H  -1.66823090  1.76985730 -0.14467450
H   0.21147431 -1.83674510 -1.27994120
H   1.15840480 -0.35414386 -1.66542770
H   1.46244160 -1.44921240 -0.05806592
H   1.91025320  1.28227930 -0.22244830
H   2.34956300  1.22533250  1.54838090
H   0.01332060  0.37714615  2.09707740

