%chk=ts_freq.chk
%nprocshared=4
#P wB97X/6-31G(d) opt(ts,calcall,noeigentest,nomicro,maxcycles=150) freq

ReactOT exact pure Gaussian calcall TS opt+freq: rxn1379

0 1
N  -1.50967160 -0.76808465 -0.16491340
C  -0.31335077  0.02636042  0.01710775
C   0.74259470 -0.80820130 -0.25949610
N   1.79593680  0.00920484 -0.06550141
N   1.48360310  1.27965220  0.30866110
C   0.16374911  1.31089230  0.36443016
H  -2.13827940 -0.49115008 -0.91546184
H  -2.05870370 -0.96010274  0.67369420
H  -0.59946930 -1.60833430 -0.43161884
H   2.76728700 -0.22366108 -0.16958833
H  -0.33369598  2.23342440  0.64268670

