%chk=ts_freq.chk
%nprocshared=4
#P wB97X/6-31G(d) opt(ts,calcfc,noeigentest,nomicro,maxcycles=150) freq

GSM eqV2 pure Gaussian calcfc TS opt+freq: rxn7535

0 1
C   2.50473100 -0.14192300  0.83351700
C   1.76796000 -0.14737900  0.60223600
C   0.39805100  0.00442500  0.18234400
C  -0.29760000  1.08206500 -0.33243600
N  -1.57356200  0.60039900 -0.64109600
N  -1.66832700 -0.65165500 -0.34958000
N  -0.49811200 -1.02686400  0.20089900
H   1.90487900  1.40625200 -1.11159600
H  -0.23384700  2.09185800 -0.02140900
H  -0.40972000 -1.97499500  0.53063700

