%chk=ts_freq.chk
%nprocshared=4
#P wB97X/6-31G(d) opt(ts,calcfc,noeigentest,nomicro,maxcycles=150) freq

ReactOT exact pure Gaussian calcfc TS opt+freq: rxn5759

0 1
C  -1.12114980 -0.16033237  1.22861930
C  -0.77920675  0.05569193 -0.21732853
N  -1.22456990  1.30006900 -0.74232170
C   0.12407509  1.29699520 -1.29731000
C   1.11801180  0.24124172 -0.12499028
C   1.52581080 -1.16007130  0.28957120
O   0.87890816 -2.17527000  0.29139940
H  -0.75868464  0.68545914  1.82543970
H  -2.22882270 -0.14366843  1.30210380
H  -0.73096704 -1.09689470  1.60144330
H  -0.92100227 -0.82478120 -0.83919380
H  -1.86401450  1.14018570 -1.53246620
H   0.11281455  0.65490365 -2.21061660
H   1.33026410  0.90346590  0.72361040
H   1.90102670  0.46071590 -0.87372756
H   2.63750620 -1.17770950  0.57576750

