%chk=ts_freq.chk
%nprocshared=4
#P wB97X/6-31G(d) opt(ts,calcall,noeigentest,nomicro,maxcycles=150) freq

ReactOT exact pure Gaussian calcall TS opt+freq: rxn10042

0 1
C   2.02080850  0.08787753 -0.21303546
C   0.56289640 -0.13812030  0.10537670
C  -0.51953465 -0.32661742 -0.88426745
C  -1.62730040  0.38264436  0.25517747
C  -1.61110040 -0.95559126 -0.18519929
N   0.14380765 -0.71841400  1.28274010
C  -0.44446260  0.50728860  1.16673030
H   2.16009860  0.95224880 -0.86624440
H   2.43835880 -0.79387295 -0.68313974
H   2.57162240  0.27249500  0.71742450
H  -0.49123540 -0.22504808 -1.97392270
H  -2.41455820  1.09321560  0.01423233
H  -2.46589230 -1.44654070 -0.63678480
H  -0.32350874  1.30843500  1.90091240

