%chk=ts_freq.chk
%nprocshared=4
#P wB97X/6-31G(d) opt(ts,calcall,noeigentest,nomicro,maxcycles=150) freq

ReactOT exact pure Gaussian calcall TS opt+freq: rxn8152

0 1
C  -2.03191230 -0.22075430  0.29586336
C  -0.64882680 -0.07536724  0.87165517
O  -0.06303199 -1.32852070  1.28318190
C   1.20180050 -0.99155950  0.74956640
C   0.70901790 -0.84836820 -1.06543720
C   0.58271927  0.18317318 -0.00976751
C   1.20552300  1.54411510 -0.17304333
H  -2.40185880  0.73942640 -0.06406589
H  -2.06508610 -0.93929964 -0.53102950
H  -2.71311120 -0.59061750  1.07881810
H  -0.66187320  0.61839944  1.71776060
H   1.40675910 -1.70524420 -0.31748423
H   1.47944900 -0.64669480 -1.81311500
H  -0.15210299 -1.41629640 -1.38770470
H   0.62219680  2.19099780 -0.82980156
H   1.31232100  2.04525660  0.79454500
H   2.21801690  1.44135360 -0.59994120

