%chk=ts_freq.chk
%nprocshared=4
#P wB97X/6-31G(d) opt(ts,calcall,noeigentest,nomicro,maxcycles=150) freq

ReactOT exact pure Gaussian calcall TS opt+freq: rxn7317

0 1
C  -1.98493810  0.07059649  0.58961165
C  -1.27171650 -0.59299594 -0.55711720
C  -0.10226254  0.01970691 -1.30010820
C   0.63899547  1.18124160 -0.63574060
C   0.95231060  0.69371210  0.78420930
C   0.97685176 -0.83859270  0.74211293
C   0.10468453 -1.21818830 -0.45546666
H  -2.73292780  0.78415640  0.22374058
H  -2.49107500 -0.67247903  1.21711680
H  -1.30845140  0.62789300  1.24171460
H  -1.96096470 -1.14479800 -1.19669140
H  -0.07202955 -0.02723414 -2.38872050
H   1.51832800  1.46250890 -1.22979990
H  -0.00711053  2.07483650 -0.58447295
H   2.81877330  1.06220850  0.86348630
H   2.10805080  1.22796680  1.28087580
H   0.54742900 -1.24045230  1.67664710
H   1.97679100 -1.27958920  0.64223850
H   0.28926190 -2.19049790 -0.91363610

