%chk=ts_freq.chk
%nprocshared=4
#P wB97X/6-31G(d) opt(ts,calcall,noeigentest,nomicro,maxcycles=150) freq

ReactOT exact pure Gaussian calcall TS opt+freq: rxn7728

0 1
N   2.33445740 -0.38887520  0.72588040
C   1.28526020 -0.58911320  0.13241683
N  -0.74682826  2.23584800 -0.92202080
N  -0.77468234  1.17380360 -0.55886245
O  -1.42411160  0.22873668  1.56657540
C  -1.42865690  0.02580009  0.38193834
C   0.10383837 -0.77522594 -0.35541055
H   3.11167740  0.08172508  0.25310600
H  -2.23706080 -0.44456542 -0.19066730
H  -0.22389333 -1.54813360 -1.03295600

