%chk=ts_freq.chk
%nprocshared=4
#P wB97X/6-31G(d) opt(ts,calcall,noeigentest,nomicro,maxcycles=150) freq

ReactOT exact pure Gaussian calcall TS opt+freq: rxn4226

0 1
N  -1.01800450  0.80895270  1.68275320
C  -0.74331903  0.54728230  0.47761790
N   0.36955014 -0.24942397  0.16054703
C   0.71914500 -0.56535447 -1.08446110
O   1.76868380 -1.30847670 -1.24589840
H  -1.85551700  1.39638610  1.70933320
H  -1.27815940  0.86895390 -0.43277510
H   0.93315750 -0.59915805  0.93468684
H   1.10446370 -0.89916170 -2.20180340

