%chk=ts_freq.chk
%nprocshared=4
#P wB97X/6-31G(d) opt(ts,calcall,noeigentest,nomicro,maxcycles=150) freq

ReactOT exact pure Gaussian calcall TS opt+freq: rxn7754

0 1
C  -1.61975000 -1.08832230 -0.84689420
C  -1.69530980 -0.60059330  0.55418230
C  -2.36962580  0.74413170  0.63807154
C   0.45132110  0.26791888  0.90733486
C   1.30592740 -0.05416487 -0.27505887
C   2.64497140  0.70943930 -0.18697570
O   1.51336690 -1.45047280 -0.25881648
H  -2.54694200 -1.65560270 -0.99552760
H  -0.77840580 -1.78271340 -1.01167040
H  -1.58539660 -0.32269657 -1.63883920
H  -0.50005900 -0.54780140  1.09116730
H  -3.44068980  0.51925540  0.51622087
H  -2.12766340  1.45106200 -0.17069605
H  -2.24458340  1.22176300  1.61146150
H   0.95362610  0.01741672  1.84119690
H   0.12332531  1.30796700  0.94262075
H   0.79446226  0.24552949 -1.20436630
H   3.18881250  0.44219366  0.70330864
H   2.49594240  1.79382800 -0.22475624
H   3.27989670  0.46441670 -1.05890290
H   2.15677380 -1.68255410 -0.93306094

