%chk=ts_freq.chk
%nprocshared=4
#P wB97X/6-31G(d) opt(ts,calcfc,noeigentest,nomicro,maxcycles=150) freq

ReactOT exact pure Gaussian calcfc TS opt+freq: rxn3943

0 1
C   1.98066770  0.00528884  0.28188643
N   0.57306534 -0.34288043  0.40995017
C  -0.24764435 -0.45776445 -0.58801940
C  -1.70629330 -0.69078940 -0.44341028
C  -0.82288260  2.05640550 -0.01796615
N  -0.86631250  1.92013860  1.15216980
H   2.36005280 -0.38423312 -0.66942220
H   2.54422380 -0.43393984  1.09925370
H   2.05875660  1.10385920  0.32400006
H   0.12513717  0.05118875  1.24835850
H   0.21681799 -0.60374070 -1.55968200
H  -2.25050690 -0.05486986 -1.14958200
H  -1.91425530 -1.73588280 -0.65014040
H  -2.05082680 -0.43278036  0.56260407

