%chk=ts_freq.chk
%nprocshared=4
#P Opt=(TS,CalcAll,NoEigenTest,NoMicro,MaxCycles=150) Freq External='../../../../../production/external/horm.sh'

External--CalcAll initial TS guess: rxn2950

0 1
C   1.97122530  0.49851334 -0.63633370
O   0.63207984  0.09316718 -0.70752114
C   0.16677533 -0.43148040  0.51614773
C  -1.31371090 -0.79503050  0.33464970
C  -1.97639040  0.89829725  0.27192613
O  -2.62949870 -0.02959734 -0.36715811
H   2.24313470  0.92415977 -1.60277000
H   2.63930960 -0.35631168 -0.43185323
H   2.12811700  1.24848850  0.14861548
H   0.29452140  0.28585163  1.33569980
H   0.70307740 -1.37682150  0.75230950
H  -1.73855350 -1.19718340  1.25835170
H  -1.34445750 -1.54568040 -0.47929248
H  -1.77562950  1.78362750 -0.39277136

