%chk=ts_freq.chk
%nprocshared=4
#P wB97X/6-31G(d) opt(ts,calcfc,noeigentest,nomicro,maxcycles=150) freq

ReactOT exact pure Gaussian calcfc TS opt+freq: rxn4808

0 1
C   1.92054410  0.03387085 -0.12786254
C   0.56568694  0.23494464  0.51043504
C  -0.60097660  0.80916300 -0.30831346
C  -1.16088490 -0.47503668 -0.02916953
N  -2.44928380 -0.53964140 -0.06934428
O  -0.17313305 -1.10346950  0.60332680
H   2.55697580 -0.61999170  0.47931394
H   2.40948990  1.01183650 -0.20516202
H   1.82343610 -0.40340132 -1.12622890
H   0.64365360  0.58901805  1.53951750
H  -2.15409420  0.74735280 -0.11872260
H  -0.38710000  1.06357900 -1.35869370
H  -2.99431420 -1.34822400  0.21090375

