%chk=ts_freq.chk
%nprocshared=4
#P wB97X/6-31G(d) opt(ts,calcfc,noeigentest,nomicro,maxcycles=150) freq

GSM eqV2 pure Gaussian calcfc TS opt+freq: rxn720

0 1
N   1.84102000 -0.18230800  0.35594800
C   0.61507200 -0.03230000  0.62314400
C  -0.28680700  1.02455300  0.15427700
C  -1.54848000  0.74428500  0.60867200
C  -1.46020600 -0.53163700  1.20201400
O  -0.16715600 -0.90883300  1.35379600
H   2.18817000 -1.09296400  0.64002100
H   0.04884300  1.87309500 -0.42199200
H  -2.46060800  1.30235600  0.45850000
H  -0.70008000 -0.90383800 -0.93715700
H  -2.08341900 -1.03197600  1.92867600

