%chk=ts_freq.chk
%nprocshared=4
#P wB97X/6-31G(d) opt(ts,calcall,noeigentest,nomicro,maxcycles=150) freq

ReactOT exact pure Gaussian calcall TS opt+freq: rxn2567

0 1
N   1.55703120  0.35956392  0.55899614
C   1.10116730 -0.12517358 -0.75485444
O   1.39424490  0.26799157 -1.82507720
C  -0.41382554 -0.65620090 -0.16131775
C  -1.63956930 -0.40725055 -0.78838480
C  -0.40729058  0.39441850  0.85938776
H   2.01571680 -0.36198280  1.11952870
H   2.16534300  1.17951520  0.48175886
H  -0.29710266 -1.66288040  0.25230718
H  -1.82485970  0.58179000 -1.20488360
H  -2.39007190 -1.17423630 -0.93989500
H  -0.62275857  0.18863703  1.89297900
H  -0.63802500  1.41580820  0.50945514

