%chk=ts_freq.chk
%nprocshared=4
#P wB97X/6-31G(d) opt(ts,calcfc,noeigentest,nomicro,maxcycles=150) freq

GSM eqV2 pure Gaussian calcfc TS opt+freq: rxn144

0 1
C  -2.52173200 -0.58730400  0.17331500
C  -1.03389700 -0.75889800  0.03219100
O  -0.91592800  1.31523300  0.16436500
C   0.31471900  1.67646500  0.19662000
C   1.21897300  0.45802800  0.78699700
O   2.31119400  0.32173100  1.15367900
H  -2.89477400  0.18591700 -0.49679200
H  -2.77634700 -0.30092400  1.19644000
H  -3.03278800 -1.52799100 -0.06984200
H  -0.81763300 -1.65179700  0.68236000
H  -0.61608300 -1.05473400 -0.92759500
H   0.56738900  2.48792400  0.90017900
H   0.84382000  1.89359900 -0.77538500
H   0.08823200 -0.53609300  0.77369700

