%chk=ts_freq.chk
%nprocshared=4
#P Opt=(TS,CalcAll,NoEigenTest,NoMicro,MaxCycles=150) Freq External='../../../../../production/external/horm.sh'

External--CalcAll initial TS guess: rxn2912

0 1
C   1.60037200  0.15766000  0.44195900
O   0.72263700  0.14977000  1.38591900
C  -0.97488300  0.83826100  0.68636800
C  -0.15992500  2.01727300  0.26551500
C  -1.05074900 -1.40726300 -0.28263300
C  -1.35257300 -0.79753700  0.19695500
H   2.10076600 -0.81692200  0.35261400
H   1.04913500  0.31451500 -0.70704900
H   2.40557800  0.94424500  0.47041800
H  -0.81137400  2.72705500 -0.27413100
H   0.14066400  2.49070700  1.20492300
H   0.66387600  1.79035400 -0.38971600
H  -1.54919500 -2.48194300 -0.68554700
H   0.25631800  0.12051900 -0.52525900
H  -1.80031400 -1.51219200  0.01949400
H  -2.86162600 -1.06930800  0.17101800

