%chk=ts_freq.chk
%nprocshared=4
#P wB97X/6-31G(d) opt(ts,calcfc,noeigentest,nomicro,maxcycles=150) freq

GSM eqV2 pure Gaussian calcfc TS opt+freq: rxn3657

0 1
C  -1.20565800 -1.55682800  0.38585400
C  -0.08125400 -0.98813600 -0.45851300
C   0.11768400  0.53001100 -0.36437800
C   1.61663400  0.57802900 -0.31981500
O   2.44246700  1.48480700 -0.28278300
N   2.13803200 -0.64636400 -0.37644000
H  -1.31643700 -2.63597000  0.25586400
H  -1.05932000 -1.35561200  1.45088300
H  -2.13494600 -1.06048200  0.08048000
H  -0.14120400 -1.31784400 -1.49568800
H  -0.26351100  1.06308100 -1.23833100
H  -0.32766700  0.96671400  0.53784200
H   0.92596800 -1.42892200 -0.00950500

