%chk=ts_freq.chk
%nprocshared=4
#P wB97X/6-31G(d) opt(ts,calcfc,noeigentest,nomicro,maxcycles=150) freq

GSM eqV2 pure Gaussian calcfc TS opt+freq: rxn662

0 1
C  -1.05061700  0.73287300 -0.36706600
C  -0.00298300  0.05866200 -0.96906100
C   1.85877600  0.59116100 -0.00129000
C   1.83093000 -0.56501200  0.79714400
C   0.67984700 -1.35594400  0.88108300
C  -0.20739200 -1.15332500 -0.16175700
H  -1.06815400  0.87566700  0.71126800
H  -1.83270400  1.26920400 -0.90695400
H  -0.00910100  0.01824000 -2.05743100
H   1.27928500  1.46438700  0.25228800
H   2.83499800  0.86013200 -0.41299700
H   2.76039400 -0.97707000  1.19394000
H   0.60758100 -2.21686600  1.53960000
H  -0.91907900 -1.90037700 -0.49969200

