%chk=ts_freq.chk
%nprocshared=4
#P wB97X/6-31G(d) opt(ts,calcfc,noeigentest,nomicro,maxcycles=150) freq

GSM eqV2 pure Gaussian calcfc TS opt+freq: rxn5097

0 1
C  -2.10882900 -0.52566600 -0.07075700
C  -0.77345900 -0.61728900 -0.50899600
O  -0.16632300  0.41611300 -1.17625500
C   0.07552100 -1.26790600  0.41343400
C   1.47876800 -1.48544200 -0.12743900
C   0.71700600 -1.91573900 -1.32764600
O   0.75758000 -2.21858200 -2.44945500
H  -1.27737400  0.11763800  1.29896500
H  -2.82847000  0.13120300 -0.54923600
H  -2.52610000 -1.41290700  0.39286600
H  -0.76502500  0.72810700 -1.85170800
H  -0.19970400 -0.14943300  1.54008300
H  -0.34422400 -2.01899900  1.09407700
H   2.13822600 -0.61930900 -0.24380600
H   1.97950300 -2.32195600  0.36699100

