%chk=ts_freq.chk
%nprocshared=4
#P Opt=(TS,CalcAll,NoEigenTest,NoMicro,MaxCycles=150) Freq External='../../../../../production/external/horm.sh'

External--CalcAll initial TS guess: rxn124

0 1
O  -0.59193796  2.18424250 -0.26839220
C  -0.36550584  1.03241870  0.06829137
C  -1.06095080 -0.27315910 -0.12592085
C   0.09398149 -1.04948350 -0.03370218
O   1.30531440 -0.37935448 -1.21445430
C   1.04858660  0.07936998 -0.03952090
H  -2.09139350 -0.54072080 -0.31525072
H  -0.51831585  0.74207646  1.21308020
H   0.29790097 -2.10587980  0.06857598
H   1.88232030  0.31049000  0.64729370

