%chk=ts_freq.chk
%nprocshared=4
#P Opt=(TS,CalcAll,NoEigenTest,NoMicro,MaxCycles=150) Freq External='../../../../../production/external/horm.sh'

External--CalcAll initial TS guess: rxn5912

0 1
C  -0.92846704  1.27367560 -0.38348806
C  -0.20267160  0.05634168  0.13054230
C  -1.08140770 -0.91689503  0.88153550
C   0.84152260 -0.57763946 -0.80456810
C   1.74881840 -0.05365097  0.11301461
O   2.95544860  0.13256516 -0.16402440
O   0.93359120  0.51144224  1.00968710
H  -0.23567620  1.96181670 -0.87950250
H  -1.67622760  0.96107703 -1.12915670
H  -1.44670250  1.79136780  0.42784622
H  -0.47739464 -1.73209420  1.30041240
H  -1.61314330 -0.40415683  1.69513730
H  -1.83580370 -1.33556690  0.20199402
H   0.78327715 -1.60326500 -1.16744230
H   2.23483630 -0.06501762 -1.23198740

