%chk=ts_freq.chk
%nprocshared=4
#P wB97X/6-31G(d) opt(ts,calcall,noeigentest,nomicro,maxcycles=150) freq

ReactOT exact pure Gaussian calcall TS opt+freq: rxn1810

0 1
C   1.27806940 -0.49004152 -0.24697468
C   0.71185476  0.63978960  0.57704700
C  -0.25919923  1.57510760 -0.07898091
C  -1.28565570 -0.35617054 -0.20788641
C   0.00444495 -0.69162560  0.51876610
H   1.23765340 -0.41725534 -1.33251450
H   2.15164900 -1.01598660  0.15292180
H   1.24671710  0.99514540  1.45510380
H  -0.05848040  1.66951140 -1.15999050
H  -1.46286110  0.82846767 -0.11341819
H  -2.18487220 -0.64716727  0.34146038
H  -1.36372160 -0.68616020 -1.24873200
H  -0.01559834 -1.40361480  1.34319820

