%chk=ts_freq.chk
%nprocshared=4
#P Opt=(TS,CalcAll,NoEigenTest,NoMicro,MaxCycles=150) Freq External='../../../../../production/external/horm.sh'

External--CalcAll initial TS guess: rxn4608

0 1
C  -2.17718770  0.27943468  0.19162917
O  -1.07677970 -0.51156646  0.60617710
C  -0.21269354 -0.86599284 -0.39656350
C   0.28326416  0.50978790 -1.45969690
C   1.13142060  0.36874413 -0.57080440
C   2.19714830  0.40267605  0.44068350
H  -2.77764000 -0.24340162 -0.55549806
H  -2.77966640  0.48503700  1.08441000
H  -1.84471510  1.23209620 -0.25058684
H   0.53395350 -1.52470710  0.05476307
H  -0.69332600 -1.39025470 -1.22039910
H   2.75180650 -0.53938570  0.46865150
H   2.89567830  1.20130810  0.18828121
H   1.76873720  0.59622425  1.41895320

