%chk=ts_freq.chk
%nprocshared=4
#P wB97X/6-31G(d) opt(ts,calcfc,noeigentest,nomicro,maxcycles=150) freq

ReactOT exact pure Gaussian calcfc TS opt+freq: rxn8439

0 1
C  -1.40234640 -0.36663890 -0.86217720
C  -0.59367750 -0.51168156  0.39783424
O  -0.46039605 -1.71997440  0.89671550
C   0.64865875  0.39084476  0.54252290
C   1.75480060 -0.19407631 -0.34985180
C   0.35993683  1.79523130  0.20977876
N   0.11068387  2.89976840 -0.05369082
H  -1.58702740  0.67923180 -1.12507260
H  -2.35059400 -0.90997076 -0.76055294
H  -0.83385634 -0.83612317 -1.66529390
H  -1.45258300  0.20208211  1.33355020
H  -1.23471380 -0.73563410  1.52167320
H   0.95813257  0.33231850  1.59157560
H   2.70841200  0.29692620 -0.13612927
H   1.52527820 -0.06897768 -1.41245080
H   1.84929200 -1.25332600 -0.12843128

