%chk=ts_freq.chk
%nprocshared=4
#P Opt=(TS,CalcAll,NoEigenTest,NoMicro,MaxCycles=150) Freq External='../../../../../production/external/horm.sh'

External--CalcAll initial TS guess: rxn5842

0 1
C   2.49462220 -0.02015398  0.60754234
N   1.29966450  0.78102310  0.49574652
C   0.26455860  0.25654653  0.03822556
O   0.05128036 -1.00051260 -0.49639654
C  -1.30661370 -0.59504414 -0.85834310
C  -2.26211700 -0.68161106  0.24064030
C  -1.13896870  0.73743570 -0.17506106
H   3.32473830  0.51195520  0.12826318
H   2.73072360 -0.13724484  1.68154660
H   2.41191900 -1.02227030  0.14537919
H  -1.53734040 -0.70387566 -1.91465850
H  -1.69756540  0.44819382  0.86357063
H  -3.19933580 -0.26256445 -0.14361085
H  -1.43556560  1.68812270 -0.61284420

