%chk=ts_freq.chk
%nprocshared=4
#P wB97X/6-31G(d) opt(ts,calcfc,noeigentest,nomicro,maxcycles=150) freq

ReactOT exact pure Gaussian calcfc TS opt+freq: rxn7070

0 1
O  -1.46253650 -0.73502105  1.13706660
C  -0.69782597 -0.02804648  0.33971342
C  -0.40726720 -0.86947030 -0.79899750
C   0.82871120  0.12078025  0.56178920
C   2.03437200  0.12302423  0.62982213
C  -1.17012440  1.35342780  0.04426056
N  -1.53303400  2.42717580 -0.19399320
H  -0.59362240 -0.62534297 -1.85111340
H  -0.10224247 -1.88024600 -0.54677820
H   3.10356970  0.11371878  0.67823040

