%chk=ts_freq.chk
%nprocshared=4
#P wB97X/6-31G(d) opt(ts,calcfc,noeigentest,nomicro,maxcycles=150) freq

ReactOT exact pure Gaussian calcfc TS opt+freq: rxn5641

0 1
C  -2.04431530 -0.75912620  0.02475024
C  -1.09972040  0.44268460 -0.01518825
C  -0.20180176  0.56963736  1.23386550
C   1.12010560  1.00356290  0.70160470
C   1.64906420 -0.89954710 -0.42362395
C   1.12921330  0.87276740 -0.70359770
C  -0.14304249  0.49303430 -1.17472060
H  -1.47632240 -1.69358270  0.09725986
H  -2.72740900 -0.70691140  0.88593750
H  -2.66892360 -0.81462980 -0.87098110
H  -1.69147110  1.36699830 -0.06815532
H  -0.60942465  1.28262270  1.97585480
H  -0.12189383 -0.39520884  1.75763110
H   1.94915850  1.31039870  1.33275260
H   1.13020180 -1.62749560 -1.04932010
H   1.62219980 -1.24396690  0.60332010
H   2.68889830 -0.79185414 -0.74238133
H   1.92609380  1.20522050 -1.35717430
H  -0.43061137  0.38539585 -2.20783380

