%chk=ts_freq.chk
%nprocshared=4
#P wB97X/6-31G(d) opt(ts,calcfc,noeigentest,nomicro,maxcycles=150) freq

GSM eqV2 pure Gaussian calcfc TS opt+freq: rxn1813

0 1
C  -1.55345600 -0.12972800  0.66092600
O  -0.36295100 -0.64255700  0.11982900
C   0.73892000 -0.44261600  0.96551900
C   1.94763900 -0.99068900  0.24862800
C   2.78292000 -0.11368600 -0.59974700
O   3.19132700 -0.80828700  0.95742300
H  -1.80446600 -0.61527600  1.61697500
H  -1.48443400  0.95625400  0.82932000
H  -2.34957900 -0.32746300 -0.06036500
H   0.59878100 -0.96582500  1.92716800
H   0.89672600  0.62854300  1.17302100
H   1.85346400 -2.04530800 -0.01137700
H   3.32761300  0.23806600  0.69616400
H   3.36426400 -0.72503300 -1.30606400

