%chk=ts_freq.chk
%mem=6GB
%nprocshared=4
#P Opt=(TS,CalcAll,NoEigenTest,NoMicro,MaxCycles=150) Freq External='../../../../../production/external/horm.sh'

External--CalcAll initial TS guess: rxn7689

0 1
C  -1.15338750  0.75447580 -0.16122863
C  -1.17278950 -0.67890084  0.29725817
N   0.13976306 -0.93210170  0.89817300
C   1.19740000 -0.39358392  0.27852255
N   2.40406400 -0.74444747  0.38233045
C   0.78454670  0.76861980 -0.57234687
N   1.20096960  1.58710460 -1.38026340
H  -0.18235584  1.43403480 -1.11011920
H  -1.28109620  1.44761230  0.67119870
H  -1.91482230  0.94019870 -0.92684907
H  -1.38362800 -1.35016350 -0.54149130
H  -1.93621590 -0.84448120  1.06447240
H   0.30720440 -1.84717940  1.28515240
H   2.99034790 -0.14118709 -0.18480891

