%chk=ts_freq.chk
%nprocshared=4
#P Opt=(TS,CalcAll,NoEigenTest,NoMicro,MaxCycles=150) Freq External='../../../../../production/external/horm.sh'

External--CalcAll initial TS guess: rxn4685

0 1
O   1.70017000  0.74330900  1.30452200
C   0.38001000  0.31386900  1.30650200
C  -0.11253500 -0.28698000  0.13090600
C  -1.26474800 -1.10337700  0.02364900
C  -2.45407300  2.20867400 -1.54662000
C  -1.63968600  2.41073900 -0.51801700
H   1.73038200  1.66031600  1.60305900
H  -0.12127800 -1.13757000  1.05086500
H  -0.29368400  0.74450500  2.04507900
H   0.65812100 -0.43903100 -0.62690000
H  -2.07576400 -1.02116700  0.74045800
H  -1.35342100 -1.80825000 -0.79055500
H  -2.12559500  2.35503300 -2.57282700
H  -3.48768500  1.90386200 -1.40349800
H  -1.97325200  2.28000300  0.50880200
H  -0.61274800  2.74289100 -0.65394700

