%chk=ts_freq.chk
%nprocshared=4
#P wB97X/6-31G(d) opt(ts,calcall,noeigentest,nomicro,maxcycles=150) freq

GSM eqV2 pure Gaussian calcall TS opt+freq: rxn8708

0 1
C  -1.37720600 -0.80554000 -0.19117400
C  -0.09525800 -0.20813500  0.25187800
C   0.45670900  1.17376400  0.11102700
C   1.25292400 -0.00378400 -0.36899100
C   1.65339600 -0.87432700  0.66094300
O   2.72286500 -1.53192100  0.47040200
O   0.56976400 -0.97396800  1.44023900
H  -2.14308000 -0.62705500  0.56816100
H  -1.25939800 -1.88141900 -0.35478900
H  -1.69048600 -0.32644200 -1.11596500
H   0.70601800  1.69557600  1.04509800
H   0.00088400  1.79458200 -0.64889600
H   2.62183700 -0.94132000 -0.66652800

