%chk=ts_freq.chk
%nprocshared=4
#P wB97X/6-31G(d) opt(ts,calcfc,noeigentest,nomicro,maxcycles=150) freq

GSM eqV2 pure Gaussian calcfc TS opt+freq: rxn3398

0 1
O  -3.27827100  2.37385800 -2.19438100
C  -2.07694300  2.31862500 -2.33367000
C  -1.13463100  2.26819000 -1.14140100
N   0.27144600  2.34627500 -1.51339400
C   0.81508500  1.70046900 -2.57697100
C   1.11180200  3.31397000 -1.14254900
H  -1.58161400  2.28339500 -3.32744000
H  -1.30818300  1.31824400 -0.61076500
H  -1.37568000  3.07726900 -0.43596100
H   1.26224600  2.30458000 -3.35093800
H   0.96037700  0.61993900 -2.60301700
H   2.12140600  3.00410600 -0.90240800
H   0.84365300  4.37256100 -1.08856200

