%chk=ts_freq.chk
%nprocshared=4
#P Opt=(TS,CalcAll,NoEigenTest,NoMicro,MaxCycles=150) Freq External='../../../../../production/external/horm.sh'

External--CalcAll initial TS guess: rxn9963

0 1
C   2.75509700  0.02005200 -0.30160400
N   1.35822000 -0.06198600 -0.57204600
C   0.39601100  0.15833200  0.52065500
O   0.69078400 -0.84165300  1.26351300
N  -0.92211900  0.43352400  0.17640700
C  -1.93005600 -0.57097800  0.46049900
C  -1.39350100  1.78423900  0.00901500
H   3.00128800  0.44206800  0.68069100
H   3.17016100 -0.99403400 -0.36729600
H   3.24724300  0.61937700 -1.08918100
H   0.98837900  1.19195800  0.43426600
H  -2.44377700 -0.38685300  1.40756500
H  -1.44744700 -1.55272700  0.51192400
H  -2.66623000 -0.59073100 -0.35615100
H  -0.63658100  2.39163200 -0.51627800
H  -2.28153800  1.78113300 -0.63484400
H  -1.64065100  2.27405600  0.95782500

