%chk=ts_freq.chk
%nprocshared=4
#P wB97X/6-31G(d) opt(ts,calcfc,noeigentest,nomicro,maxcycles=150) freq

ReactOT exact pure Gaussian calcfc TS opt+freq: rxn3398

0 1
O  -2.88774630  0.38032368  0.98680610
C  -1.90424220  0.03590528  0.38600096
C  -0.52915870  0.03229578  0.96971920
N   0.51455350 -0.05783313 -0.01170719
C   0.56933050 -0.75162584 -1.16018260
C   1.62982680  0.68863744 -0.13759792
H  -1.92769090 -0.30721042 -0.66918950
H  -0.44644030 -0.84406330  1.63660040
H  -0.37383586  0.93047490  1.58189360
H   0.62646890 -0.22539662 -2.11284200
H   0.50636240 -1.83479680 -1.17775850
H   2.58406420  0.17746766 -0.23977280
H   1.63850760  1.77582130 -0.05196950

