%chk=ts_freq.chk
%nprocshared=4
#P wB97X/6-31G(d) opt(ts,calcall,noeigentest,nomicro,maxcycles=150) freq

ReactOT exact pure Gaussian calcall TS opt+freq: rxn5158

0 1
O   2.61056520 -0.61689943 -0.67105590
C   1.49560810 -0.25673094 -0.42640140
C   0.83252180  0.58284360  0.46561465
C  -0.48135412  1.16282220  0.10136742
N  -1.10181550  0.03852330  0.79736066
C  -1.24025640 -1.07190660  0.11067491
O  -0.77691984 -1.28476210 -1.06708200
H   0.47509548 -0.77501816 -1.03470480
H   1.27362990  0.76909670  1.44281970
H  -0.64384586  1.25557090 -0.96943927
H  -0.69801885  2.08914110  0.64364900
H  -1.74521000 -1.89268040  0.60719710

