%chk=ts_freq.chk
%nprocshared=4
#P Opt=(TS,CalcAll,NoEigenTest,NoMicro,MaxCycles=150) Freq External='../../../../../production/external/horm.sh'

External--CalcAll initial TS guess: rxn1648

0 1
C   0.97904200  1.32234300  0.14140400
C  -0.37571100  1.28194000 -0.54863400
C  -1.02587200 -0.10391800 -0.77606600
C  -2.30347300  0.14743700  0.07540800
O  -1.73110800  0.68005900  1.26957600
C  -1.54625100  1.70854800  0.33755500
H   0.94639800  0.73789400  1.06555700
H   1.26940900  2.34898900  0.39421500
H   1.75544200  0.89842200 -0.50498200
H  -0.36171000  1.85379800 -1.48330900
H  -0.47082700 -0.94519400 -0.34657300
H  -1.26323300 -0.32059000 -1.82043600
H  -2.56872300  1.50349100 -0.35761600
H  -1.74754600  2.70570000  0.73229400

