%chk=ts_freq.chk
%nprocshared=4
#P Opt=(TS,CalcAll,NoEigenTest,NoMicro,MaxCycles=150) Freq External='../../../../../production/external/horm.sh'

External--CalcAll initial TS guess: rxn4059

0 1
C   2.59408600  0.51393300 -0.04681600
C   1.21882600  0.02239900 -0.08640600
C   0.27421600 -0.70443900 -0.34441000
C  -0.96527000 -1.31920900 -0.75404300
C  -1.48635200 -0.20462400  0.14236400
O  -0.44323400  1.31068700  0.80508800
H   2.87499100  0.98995100  0.89624700
H   3.25164900 -0.35504500 -0.16535000
H   2.81089300  1.16389600 -0.89285500
H  -1.17813000 -1.21858900 -1.81619800
H  -1.11316400 -2.31691200 -0.34294600
H  -2.00978100  0.64127600 -0.28710400
H  -1.70328800 -0.39098700  1.19330100
H   0.13594500  2.01013900  1.12463000

