%chk=ts_freq.chk
%nprocshared=4
#P wB97X/6-31G(d) opt(ts,calcfc,noeigentest,nomicro,maxcycles=150) freq

ReactOT exact pure Gaussian calcfc TS opt+freq: rxn3108

0 1
O   1.88761770  0.22330101  0.54202527
C   0.73915790 -0.48470306  0.02707472
C  -0.48475927  0.31297782  0.34818650
O  -0.40590015  1.61822280  0.15531857
C  -2.00393680 -0.49942675 -0.28954023
N  -2.70285440 -0.95372010 -1.09296680
H   2.54282380  0.27065090 -0.17690924
H   0.79788500 -0.65341914 -1.06014600
H   0.64905757 -1.44572190  0.54711750
H  -1.56066350 -0.22925758  0.81133990
H   0.54157190  1.84109600  0.18849975

