%chk=ts_freq.chk
%nprocshared=4
#P wB97X/6-31G(d) opt(ts,calcall,noeigentest,nomicro,maxcycles=150) freq

GSM eqV2 pure Gaussian calcall TS opt+freq: rxn2306

0 1
N  -0.67940100  0.68406600 -0.33884700
C   0.15256900 -0.30615100 -0.05479400
O  -0.01249300 -1.09616800  0.94137300
C   1.42825800 -0.63709100 -0.66504700
C   2.16166400  0.39344800 -1.33487300
N   2.72993700  1.27033200 -1.84181300
H  -1.43481700  0.91057200  0.29122600
H  -0.50524500  1.27903100 -1.13536300
H   1.18835200 -1.29750100  0.65854300
H   1.37824000 -1.58117500 -1.21087800

