%chk=ts_freq.chk
%nprocshared=4
#P wB97X/6-31G(d) opt(ts,calcfc,noeigentest,nomicro,maxcycles=150) freq

GSM eqV2 pure Gaussian calcfc TS opt+freq: rxn9554

0 1
N   0.90375500 -2.98308000 -1.39203000
C   0.31763800 -1.95453500 -1.13639100
O   1.92060500 -0.55704800 -1.53696500
C   1.67799800  0.79745500 -1.65535000
C   0.38171800  0.70518200 -0.96077200
C  -0.83529400  0.18953900 -1.58469500
C  -0.62875800 -1.06378500 -0.76527800
H   1.92015200 -2.91215900 -1.40973900
H   1.59511800  1.18972200 -2.68793700
H   2.40297100  1.41046200 -1.09105800
H   0.26223300  1.11103400  0.04194900
H  -0.76677100  0.05384900 -2.66526400
H  -1.75952700  0.69617800 -1.30351000
H  -1.11759100 -1.18859100  0.19396000

