%chk=ts_freq.chk
%nprocshared=4
#P wB97X/6-31G(d) opt(ts,calcall,noeigentest,nomicro,maxcycles=150) freq

GSM eqV2 pure Gaussian calcall TS opt+freq: rxn7833

0 1
N   0.99425300  0.07383300 -0.81958700
C   0.93483200 -0.99027000  0.02129800
O   1.79265900 -1.85026000  0.08800200
C  -0.29108600 -1.03803500  0.93771900
N  -1.40206200 -0.22204200  0.48371000
C  -2.15173000  0.61606000  1.22710900
C  -2.29094800 -0.47600600 -0.52267400
H   1.79147400  0.15450400 -1.43099500
H   0.25992300  0.76242000 -0.85557000
H  -0.58434900 -2.08728900  1.02983000
H   0.01351800 -0.66071100  1.92122800
H  -2.31773200  0.42039000  2.28923200
H  -2.44503900  1.56900400  0.81034500
H  -3.25526300 -0.90707500 -0.29044100
H  -1.94459300 -0.47254400 -1.55707600

