%chk=ts_freq.chk
%nprocshared=4
#P Opt=(TS,CalcAll,NoEigenTest,NoMicro,MaxCycles=150) Freq External='../../../../../production/external/horm.sh'

External--CalcAll initial TS guess: rxn4620

0 1
C   1.78008130 -0.26069310 -0.47590977
C   0.43607208  0.15269320 -0.95802253
C  -0.25464180  0.19131519  1.52167130
C  -1.33859200  0.52751230  0.72959924
O  -2.02435760  1.56228980  0.69491700
N  -1.54927060 -0.43657458 -0.35935050
H   2.47713450 -0.10124147 -1.32368640
H   1.82318460 -1.30319320 -0.18977045
H   2.13409110  0.35223523  0.35407636
H   0.17394845  1.20939240 -0.96443180
H   0.13960873 -0.36610370 -1.87131320
H   0.10188390 -0.82917850  1.55178570
H  -0.01135678  0.83795240  2.35963580
H  -2.28834440 -0.13093129 -0.97727430
H  -1.59944140 -1.40547470 -0.09192634

