%chk=ts_freq.chk
%nprocshared=4
#P wB97X/6-31G(d) opt(ts,calcall,noeigentest,nomicro,maxcycles=150) freq

GSM eqV2 pure Gaussian calcall TS opt+freq: rxn3692

0 1
O   1.15047700  2.00124400  0.86688200
C   0.78760400  0.84839000  0.54358800
C  -0.27708900  0.50708100  0.11518500
C  -0.02474000 -0.96720700  0.58084700
O   1.10517400 -1.38059700  0.05250300
C   1.88338900 -0.17189800  0.01064100
H  -0.57812400  0.57808100 -0.94710900
H  -1.04362400  0.96484000  0.73274200
H   0.55001800 -0.23392700  1.63310700
H  -0.73085500 -1.75347300  0.85357300
H   2.10897300  0.12366500 -1.01928900
H   2.78612000 -0.38447100  0.58433400

