%chk=ts_freq.chk
%nprocshared=4
#P wB97X/6-31G(d) opt(ts,calcall,noeigentest,nomicro,maxcycles=150) freq

ReactOT exact pure Gaussian calcall TS opt+freq: rxn8219

0 1
C  -1.58602520 -0.88300097  0.32581940
C  -0.37618616 -0.39070705 -0.45512230
C   0.29565078  0.83265260 -0.12085711
N  -0.39697504  1.81006860 -0.70930463
C   1.59392680  0.53471404  0.39666268
C   1.75175990 -0.77713960  0.09728325
O   0.66302186 -1.37396660 -0.44230092
H  -2.31499080 -0.07485923  0.41399556
H  -2.05459700 -1.71623280 -0.19846430
H  -1.30005180 -1.22525490  1.33061490
H  -0.29771736  2.76231600 -0.33711034
H  -0.97946010  0.72122710 -1.22982590
H   2.37010340  1.18872180  0.76415940
H   2.63154080 -1.40853880  0.16445032

