%chk=ts_freq.chk
%nprocshared=4
#P wB97X/6-31G(d) opt(ts,calcall,noeigentest,nomicro,maxcycles=150) freq

ReactOT exact pure Gaussian calcall TS opt+freq: rxn8722

0 1
O   2.33883380  0.14630490  1.10348550
C   1.63301220 -0.52908960  0.07307579
C   0.15636566 -0.33784830  0.37290397
C  -0.31647980  1.09401990  0.25745930
C  -1.72736410  1.11294140  0.32684523
O  -1.62372330 -0.01805721 -1.25895200
C  -0.78383010 -1.03594520 -0.70383954
H   3.27905440  0.08371868  0.89621210
H   1.85701410 -0.08045661 -0.91210790
H   1.86833080 -1.59809950  0.02119360
H  -0.07610394 -0.76236546  1.36066520
H   0.32199740  1.96294740  0.37431930
H  -0.75498354  0.89448935 -1.02329950
H  -2.28990800  1.99548070  0.05184453
H  -2.30604720  0.34196123  0.84676460
H  -0.18149390 -1.44336580 -1.52188270
H  -1.39467450 -1.82663570 -0.26468742

