%chk=ts_freq.chk
%nprocshared=4
#P Opt=(TS,CalcAll,NoEigenTest,NoMicro,MaxCycles=150) Freq External='../../../../../production/external/horm.sh'

External--CalcAll initial TS guess: rxn2973

0 1
C   2.36259400 -0.13602719 -0.31133460
C   1.39987530  0.53740746  0.60913426
O   0.17645906  0.89402187  0.04960459
C  -0.46543482 -0.32020167  0.20380265
C  -1.96791820 -0.23187461  0.55410755
C  -2.26530030  0.29867200 -0.73822707
H   3.23025730 -0.48665440  0.26737720
H   2.71372060  0.50292050 -1.11464810
H   1.97555090 -1.04601790 -0.78408190
H   0.39346510 -0.62865245  1.09123560
H   1.83556710  1.35816480  1.17840680
H  -0.26371747 -1.01097460 -0.63551230
H  -2.37895630 -1.21596240  0.75789730
H  -2.12184900  0.45426790  1.38450920
H  -2.44047760 -0.35367122 -1.58421100
H  -2.18383500  1.38458200 -0.92806020

