%chk=ts_freq.chk
%nprocshared=4
#P wB97X/6-31G(d) opt(ts,calcall,noeigentest,nomicro,maxcycles=150) freq

GSM eqV2 pure Gaussian calcall TS opt+freq: rxn479

0 1
N   3.25547500  0.20108100 -0.10144300
C   2.04530100 -0.03229100 -0.02446000
C   0.69245100 -0.22189200  0.00288000
C  -0.49780800  0.63602900  0.35224900
C  -1.28935700 -0.40808500 -0.47286800
N  -0.10909300 -1.30554200 -0.44105800
H   2.36740300 -0.46970600  0.98372200
H  -0.76982100  0.61362700  1.41337400
H  -0.48901300  1.66911200 -0.00313900
H  -1.53755900 -0.05496100 -1.48013100
H  -2.18272000 -0.83166700 -0.00424000
H   0.15850300 -1.75955000 -1.30858500

