%chk=ts_freq.chk
%nprocshared=4
#P wB97X/6-31G(d) opt(ts,calcfc,noeigentest,nomicro,maxcycles=150) freq

ReactOT exact pure Gaussian calcfc TS opt+freq: rxn6639

0 1
N  -1.84381830  0.53994480 -0.07891376
C  -0.45633373  0.27395335  0.03041404
C  -0.01276526 -1.04157960  0.17977591
O  -0.81902130 -2.11952690  0.15962185
N   1.31167630 -1.14491320  0.29475996
C   1.78059280  0.21932326  0.09682676
C   0.68482906  1.08033540 -0.03587756
H  -2.07062700  1.15046570 -0.86741980
H  -2.24477240  0.96018710  0.74850270
H  -1.71085360 -1.77027510 -0.00603498
H   1.85632120 -0.76044890 -0.74551090
H   2.80009320  0.45183530  0.37974557
H   0.72467875  2.16069870 -0.15588978

