%chk=ts_freq.chk
%nprocshared=4
#P wB97X/6-31G(d) opt(ts,calcfc,noeigentest,nomicro,maxcycles=150) freq

ReactOT exact pure Gaussian calcfc TS opt+freq: rxn8721

0 1
O   2.77583770 -0.38414046  0.84701280
C   1.45492910 -0.51682790  0.33170605
C   0.69724870  0.62321067  0.75388240
C  -0.43105513  1.28979000  0.10765076
C  -1.75354670  0.50863194  0.09037309
O  -1.50413970 -0.88121814 -0.14890544
C  -0.74492630 -1.11235560 -1.18220020
H   3.10178280 -1.28932060  1.00859060
H   1.09139070 -0.50122666 -0.78823406
H   1.14080950 -1.54635610  0.54082775
H   1.09745870  1.15232570  1.62476540
H  -0.63312490  2.19880490  0.71112615
H  -0.21355240  1.65202750 -0.92367310
H  -2.42958400  0.92120665 -0.66733754
H  -2.24250940  0.55778176  1.07608280
H  -0.82601600 -0.48962727 -2.06863300
H  -0.58100320 -2.18270660 -1.31303430

