%chk=ts_freq.chk
%nprocshared=4
#P wB97X/6-31G(d) opt(ts,calcfc,noeigentest,nomicro,maxcycles=150) freq

GSM eqV2 pure Gaussian calcfc TS opt+freq: rxn436

0 1
C  -1.40680200  0.23733300  0.60181300
C  -0.30787200  0.69742000 -0.19625700
C   0.86016800 -0.13710200 -0.08169400
H  -2.42346100  0.13848700  0.21286500
H  -1.18157800 -0.26789700  1.53189100
H  -1.47744800 -1.44874500 -0.04160600
H  -1.37500400  1.38261400  0.86668500
H  -0.49562400  1.32830900 -1.05615300
H   0.20497000 -1.17981000 -0.28253900
H   1.22837800 -0.36399700  0.92454900
H   1.66842400  0.02124900 -0.79731500

