%chk=ts_freq.chk
%nprocshared=4
#P Opt=(TS,CalcAll,NoEigenTest,NoMicro,MaxCycles=150) Freq External='../../../../../production/external/horm.sh'

External--CalcAll initial TS guess: rxn3536

0 1
O   2.90878800 -0.54272900 -0.63318900
C   1.61631000 -0.42422100 -0.51772000
N   0.86548800 -1.46038600 -0.09488400
O   0.23268100 -0.70019400  0.71830700
C  -1.09527700  1.29727600 -0.79244500
N  -0.33621500  1.93022900 -1.38547200
H   3.19575600 -1.48087700 -0.57599400
H  -1.86428700  0.74130500 -0.30089900

