%chk=ts_freq.chk
%nprocshared=4
#P Opt=(TS,CalcAll,NoEigenTest,NoMicro,MaxCycles=150) Freq External='../../../../../production/external/horm.sh'

External--CalcAll initial TS guess: rxn8823

0 1
C  -1.05301500  1.30695000 -2.81482600
N  -0.58125700  0.43279200 -1.84568700
C   0.51557700  0.70166000 -1.00188000
N   1.11464300  1.59927300 -0.79291600
C   1.99963700 -2.44209600 -1.90954800
O   1.45185200 -2.46032500 -2.95085400
C   2.79291900 -2.39389900 -0.92206600
H  -1.73296200  0.77659000 -3.48724200
H  -0.32175800  1.78838700 -3.37783600
H  -1.65988600  2.05316400 -2.28719200
H  -0.34846600 -0.46855300 -2.22776400
H   0.75200400  2.38053900 -1.24331600
H   0.65806400  0.31325000 -0.84030300
H   2.39732800 -2.26322600 -0.03637100
H   3.83836500 -2.50719300 -1.12716200

