%chk=ts_freq.chk
%nprocshared=4
#P wB97X/6-31G(d) opt(ts,calcfc,noeigentest,nomicro,maxcycles=150) freq

GSM eqV2 pure Gaussian calcfc TS opt+freq: rxn1811

0 1
C  -2.41879100  0.73585900 -0.00291300
O  -1.14861000 -0.03934200 -0.36646400
C  -0.12410400  0.25681600  0.31061400
C   1.08960900 -0.53715300 -0.09130600
C   2.41167600  0.08049500 -0.14890700
O   2.04716200 -0.77303800  0.92521600
H  -3.15680800 -0.01949700  0.24944400
H  -2.34754900  1.49003200  0.81213700
H  -2.66170300  1.23539800 -0.86367400
H  -0.32741200  0.17428500  1.38580300
H   0.06128300  1.24159600  0.11200200
H   0.88112000 -1.39861700 -0.73060900
H   2.52002600  1.13328800  0.11141300
H   3.16650300 -0.31340100 -0.82903400

