%chk=ts_freq.chk
%mem=6GB
%nprocshared=4
#P opt(ts,calcall,noeigentest,nomicro,maxcycles=150) freq External='../../../../../production/external/horm.sh'

ReactOT exact C eqV2-EFH calcall TS opt+freq: rxn8113

0 1
C   1.23731110 -1.26349060  1.33070640
C   0.99886150 -0.42144940 -0.86589205
C   0.08900735  0.62531070 -0.87603180
C   0.56887180  2.00756550 -0.55253553
C  -1.30902250  0.40700817 -1.32154790
C  -1.43445170  0.25689070  0.14510898
C  -1.38992300 -0.98869070  0.82447803
H   1.96284160 -1.95405480  0.85319620
H   1.77859390 -0.32885650  1.58364760
H   0.95634340 -1.75266660  2.27624300
H   2.04927500 -0.21198820 -0.75348600
H   0.74243677 -1.38035510 -1.30700900
H   1.02967740  2.45998670 -1.43447980
H   1.34813310  2.00088360  0.22458377
H  -0.23163454  2.66790440 -0.21692608
H  -1.79765220  1.26775750 -1.77467670
H  -1.46885090 -0.50881480 -1.91121950
H  -1.61034890  1.16438030  0.72172210
H  -1.80571160 -1.01804820  1.83228980
H  -0.06586342 -1.14679600  0.97390354
H  -1.64789460 -1.88247690  0.24792510

