%chk=ts_freq.chk
%nprocshared=4
#P wB97X/6-31G(d) opt(ts,calcfc,noeigentest,nomicro,maxcycles=150) freq

ReactOT exact pure Gaussian calcfc TS opt+freq: rxn8991

0 1
O  -1.43256720 -0.13770565 -1.05503340
C  -0.82586850 -0.25931546  0.50709456
C   0.53934574 -0.57695410  0.19517219
C   1.49895580  0.50863100  0.22175144
O   2.70553730  0.42307450  0.12242367
H  -1.55359460  0.80846870 -1.31770730
H  -1.48701570 -1.02856200  0.90092725
H  -1.06424130  0.74105966  0.88762784
H  -0.31787983 -0.41528830 -1.13870750
H   0.89517620 -1.58598660  0.36608583
H   1.04215190  1.52257820  0.31036540

