%chk=ts_freq.chk
%nprocshared=4
#P wB97X/6-31G(d) opt(ts,calcfc,noeigentest,nomicro,maxcycles=150) freq

ReactOT exact pure Gaussian calcfc TS opt+freq: rxn2756

0 1
C  -0.79285705  1.49242170  0.06626152
C  -0.34908438  0.06889032 -0.02694299
N  -1.21525480 -0.87168360 -0.05661581
O  -0.59120065 -2.06035380 -0.46822712
C   1.32156970  0.03547850  0.73017514
O   0.95073646 -0.19530228 -0.78881350
H  -1.88096760  1.52928630  0.07189608
H  -0.41187720  1.95450770  0.97827460
H  -0.43085164  2.05433420 -0.79913610
H  -1.29316520 -2.71119950 -0.44389763
H   1.68502090 -0.92200300  1.09940550
H   2.13843500  0.77924466  0.65335230
H   0.86949646 -1.15362130 -1.01573200

