%chk=ts_freq.chk
%nprocshared=4
#P wB97X/6-31G(d) opt(ts,calcall,noeigentest,nomicro,maxcycles=150) freq

GSM eqV2 pure Gaussian calcall TS opt+freq: rxn2897

0 1
C  -1.32081500  0.81667300  0.47404000
C  -0.54248300 -0.48861400  0.40378900
N   0.53970900 -0.43357500 -0.57805300
C   1.74963600  0.04233900 -0.29396300
O   2.00549100  0.39380500  0.94847300
H  -2.13536500  0.74785300  1.20084800
H  -1.76122000  1.06705900 -0.49872900
H  -0.65158500  1.62580800  0.77894000
H  -1.19213300 -1.33216200  0.14479600
H  -0.08009800 -0.70544100  1.37060000
H   0.33176600 -0.64641600 -1.53966000
H   2.88089900 -0.02094600  0.21600100

