%chk=ts_freq.chk
%nprocshared=4
#P Opt=(TS,CalcAll,NoEigenTest,NoMicro,MaxCycles=150) Freq External='../../../../../production/external/horm.sh'

External--CalcAll initial TS guess: rxn6710

0 1
O  -1.76751280  1.13112030  1.44021210
C  -0.99469800  0.58343434  0.68195160
C  -1.25597580 -0.21917936 -0.55684614
N  -0.05060825 -0.80009650 -0.91041950
C   0.89590240  0.16524565 -0.64067215
C   0.51927495  0.43952245  0.79939616
C   0.71207005 -1.07964030  0.62981320
H  -0.73290825  1.17140500 -1.43440850
H  -2.20190830 -0.67117230 -0.79365090
H   0.12332375  1.33201360 -1.52380840
H   1.92044500  0.08073883 -0.99469290
H   1.09753440  1.06454520  1.47020500
H   1.72888880 -1.46256420  0.68521230
H   0.00617225 -1.73537250  1.14770840

