%chk=ts_freq.chk
%nprocshared=4
#P wB97X/6-31G(d) opt(ts,calcall,noeigentest,nomicro,maxcycles=150) freq

GSM eqV2 pure Gaussian calcall TS opt+freq: rxn2722

0 1
C  -1.33149600 -0.56445600  0.47810600
C  -0.34806200 -0.16512800 -1.16034400
O  -0.68648200  0.73050300 -2.06488000
C   0.97972300  0.21601000 -0.55333600
C  -0.03963600  0.83360600  0.38490900
H  -0.79654200 -1.00597600  1.31699100
H  -1.81393300 -1.38391100 -0.06343100
H  -2.12933700  0.03695100  0.89238900
H  -1.65236600  0.68520800 -2.22299900
H   1.52699700 -0.60082900 -0.08384800
H   1.62351300  0.91037800 -1.08983300
H   0.25094200  0.81352000  1.45531900
H  -0.42937600  1.77826700  0.02745800

