%chk=ts_freq.chk
%nprocshared=4
#P wB97X/6-31G(d) opt(ts,calcall,noeigentest,nomicro,maxcycles=150) freq

GSM eqV2 pure Gaussian calcall TS opt+freq: rxn5641

0 1
C  -2.59035400 -0.40355800  0.36669200
C  -1.54619400  0.66719600  0.07040300
C  -0.40709300  0.77746500  1.11762800
C   0.80429700  1.14954600  0.28643800
C   0.94509500 -1.35589600 -0.51346100
C   0.43918600  1.12945100 -1.06283000
C  -0.81453400  0.55011900 -1.24934000
H  -2.13173600 -1.39976900  0.39138600
H  -3.07049300 -0.23085700  1.33711000
H  -3.37898700 -0.41167700 -0.39426800
H  -2.04947000  1.64925000  0.04489000
H  -0.63396500  1.48617300  1.92232900
H  -0.25278100 -0.20306600  1.59782200
H   1.66831900  1.69884300  0.64692800
H   0.05918900 -1.93249900 -0.74767000
H   1.33001700 -1.42022900  0.49796500
H   1.67249700 -1.21547900 -1.30328900
H   1.13895400  1.34130600 -1.86885500
H  -1.31294300  0.49469000 -2.21310900

