%chk=ts_freq.chk
%nprocshared=4
#P wB97X/6-31G(d) opt(ts,calcall,noeigentest,nomicro,maxcycles=150) freq

GSM eqV2 pure Gaussian calcall TS opt+freq: rxn66

0 1
N   2.04694600 -0.27844700 -0.24570500
C   0.71529400 -0.02708400  0.06866800
C  -0.09649100  1.05492100 -0.14698600
N  -1.39091300  0.64221400  0.17699000
C  -1.37624100 -0.61649000  0.68787400
N  -0.08091500 -0.99570600  0.64232200
H   2.49242700 -0.83749900  0.47756500
H   2.58197700  0.56803600 -0.38692300
H   0.10758900  2.04217100 -0.53479800
H  -2.21581300  1.20688800  0.04966200
H  -0.97913200 -1.83077300  0.27033300

