%chk=ts_freq.chk
%nprocshared=4
#P wB97X/6-31G(d) opt(ts,calcfc,noeigentest,nomicro,maxcycles=150) freq

GSM eqV2 pure Gaussian calcfc TS opt+freq: rxn3133

0 1
O   2.17547000  0.56012400 -0.18747200
C   0.88073300  0.22187700 -0.05666800
C   0.21800400 -1.01919100  0.10635200
C  -1.26821800 -0.77157300  0.26984600
C  -1.32126000  0.59123900  0.05554800
N  -0.05266400  1.16646500 -0.07585600
H   2.70538200 -0.24521000 -0.20436700
H   0.73258200 -1.93198100  0.40734400
H  -0.57067000 -1.29402400 -0.80402200
H  -2.17981700  1.24810700 -0.02952000
H   0.16207800  2.14937000 -0.19797200

