%chk=ts_freq.chk
%nprocshared=4
#P wB97X/6-31G(d) opt(ts,calcall,noeigentest,nomicro,maxcycles=150) freq

ReactOT exact pure Gaussian calcall TS opt+freq: rxn3323

0 1
C  -1.43603350 -0.29637890 -0.06050778
C   0.03041992 -0.33641145  0.10162248
O   0.78108037 -0.61447610 -0.88019156
C   1.41341900  1.62637170  0.37985778
N   2.41353400  1.04845920  0.21020830
H  -1.72252670 -0.40117930 -1.10175340
H  -1.77958190  0.67659690  0.31791273
H  -1.88978360 -1.07430110  0.55054325
H   0.47636878 -0.28735274  1.09691950
H   1.71310390 -0.34132830 -0.61461130

