%chk=ts_freq.chk
%nprocshared=4
#P wB97X/6-31G(d) opt(ts,calcall,noeigentest,nomicro,maxcycles=150) freq

GSM eqV2 pure Gaussian calcall TS opt+freq: rxn1650

0 1
C  -2.73372700  0.30031200 -0.30326800
C  -1.45288700  1.00582100  0.12703800
C  -0.20278800  0.17577000 -0.16700900
O   0.93342600  0.86656600  0.24042400
C   2.76416300 -0.15641000 -0.15607200
O   3.21950400 -1.09073100 -0.62233000
H  -2.84871700 -0.65873100  0.21439000
H  -3.61845400  0.90441600 -0.07588100
H  -2.73036200  0.09912100 -1.38151700
H  -1.46420000  1.22318900  1.20210500
H  -1.35186800  1.96729400 -0.38988300
H  -0.31260700 -0.79840600  0.35338200
H  -0.17579200 -0.03991800 -1.25294000
H   2.30251000  0.74283100  0.40712500

