%chk=ts_freq.chk
%nprocshared=4
#P Opt=(TS,CalcAll,NoEigenTest,NoMicro,MaxCycles=150) Freq External='../../../../../production/external/horm.sh'

External--CalcAll initial TS guess: rxn8557

0 1
O   2.08148100  0.17699300 -1.23502500
C   1.15988100  0.25349900 -0.24991800
C   1.86356600 -0.22808500  0.85036200
C   0.18679900 -1.10512400 -1.46711000
C  -0.98624100 -0.55309400 -1.40912700
C  -1.20423500  0.64217000 -0.49620200
N   0.08964300  1.15398400 -0.19389700
H   1.80778000  0.24012300  1.83384700
H   2.65166200 -0.95861600  0.72538700
H   0.45833000 -2.02280100 -1.97621400
H  -1.87774700 -0.96069300 -1.90749200
H  -1.74100300  0.32234600  0.42143900
H  -1.81990600  1.41619800 -0.92484400
H   0.31515200  2.06505500 -0.57557100

