%chk=ts_freq.chk
%nprocshared=4
#P wB97X/6-31G(d) opt(ts,calcall,noeigentest,nomicro,maxcycles=150) freq

GSM eqV2 pure Gaussian calcall TS opt+freq: rxn1326

0 1
N  -1.01507900 -0.97604000 -0.52002200
C  -0.32576500 -1.00473500  1.30652800
O  -0.61994700 -1.52696300  2.28537800
O   1.50371000 -0.64251500  0.96429600
C   1.48134200  0.15929600 -0.02039500
N   0.48832900  0.24758200 -0.85268500
H  -0.97073600 -0.89583500 -1.53678900
H  -1.96822600 -0.70272300 -0.26077600
H   2.33979900  0.83560700 -0.15242300
H   0.57171500  0.99134000 -1.52822400

