%chk=ts_freq.chk
%nprocshared=4
#P wB97X/6-31G(d) opt(ts,calcall,noeigentest,nomicro,maxcycles=150) freq

GSM eqV2 pure Gaussian calcall TS opt+freq: rxn1214

0 1
C  -1.91069900  0.25247000  0.28136000
C  -0.44652000  0.27442600  0.58905200
C   0.60391000  0.87570200 -0.29006800
C   0.62163300 -0.60274800  0.00407700
C   1.20651300 -0.97202600  1.33337300
O  -0.10514600  0.29103900  1.97628600
H  -2.39351900 -0.59465900  0.78011700
H  -2.38790300  1.17028600  0.64245100
H  -2.08360900  0.17005800 -0.79465000
H   1.36844300  1.47984000  0.19377800
H   0.29261300  1.20746800 -1.27691900
H   0.38101900 -1.36135600 -0.73769400
H   2.08504300 -0.37691600  1.61067000
H   0.06763700 -0.77764200  2.21858700

