%chk=ts_freq.chk
%nprocshared=4
#P Opt=(TS,CalcAll,NoEigenTest,NoMicro,MaxCycles=150) Freq External='../../../../../production/external/horm.sh'

External--CalcAll initial TS guess: rxn4688

0 1
O   2.49798500 -0.07995200  0.43509400
C   1.35067700 -0.87692300  0.64425300
C   0.23026200 -0.53780300 -0.32203800
C  -1.04627000 -1.36386500 -0.18069100
C  -1.75735600  0.56535700 -0.82035500
C  -0.39641200  0.85632600 -0.18317000
H   2.26297600  0.83341000  0.64195700
H   1.67104200 -1.91491400  0.50011400
H   0.98351600 -0.78591800  1.68152500
H   0.60008900 -0.64437800 -1.34867200
H  -1.46476500 -1.34900300  0.82743000
H  -1.01536900 -2.38864900 -0.56638100
H  -1.74628400 -0.83290400 -1.00445500
H  -2.54778500  0.64135800 -0.05349200
H  -0.44051300  1.14021000  0.88204300
H   0.14489500  1.63858700 -0.72914600

