%chk=ts_freq.chk
%nprocshared=4
#P wB97X/6-31G(d) opt(ts,calcall,noeigentest,nomicro,maxcycles=150) freq

GSM eqV2 pure Gaussian calcall TS opt+freq: rxn7298

0 1
C   1.44430600 -0.48635300  0.38767200
C   0.05001500 -0.31586700 -0.13420700
N  -0.06520100 -0.16394000 -1.57946500
C  -1.10712600 -0.85269900 -1.45044400
C  -2.19154700 -0.36380400  0.22929400
O  -3.15205500  0.54963700  0.55901300
N  -0.97721900  0.07298500  0.66981700
H   2.10605300 -0.76787800 -0.43388000
H   1.51850100 -1.24006700  1.17895400
H   1.81110200  0.46991100  0.79115100
H  -1.57897800 -1.49829800 -2.19090700
H  -3.99514900  0.18698300  0.26676500
H  -0.85280900  0.67627500  1.47384800

