%chk=ts_freq.chk
%nprocshared=4
#P wB97X/6-31G(d) opt(ts,calcfc,noeigentest,nomicro,maxcycles=150) freq

ReactOT exact pure Gaussian calcfc TS opt+freq: rxn9734

0 1
O   0.63858430 -2.60803580  0.48375434
C   0.42599470 -1.43845680  0.23907624
C  -0.97239730 -0.94659240 -0.14958066
C  -1.26624660  0.47780746  0.32132724
C  -0.18941648  1.43966570 -0.11769244
C   1.14019220  0.96401210 -0.07799306
C   1.46099590 -0.40472203  0.24936882
H  -1.04553400 -0.98510810 -1.24437520
H  -1.69042020 -1.66129090  0.25403503
H  -2.25751920  0.81867313  0.03131287
H  -1.23281780  0.44693536  1.44669570
H   0.94242877  0.46165818 -1.11564920
H  -0.40489370  2.45537730 -0.42603627
H   1.95051380  1.68498220 -0.20541057
H   2.50053570 -0.70490550  0.31116727

