%chk=ts_freq.chk
%nprocshared=4
#P wB97X/6-31G(d) opt(ts,calcfc,noeigentest,nomicro,maxcycles=150) freq

GSM eqV2 pure Gaussian calcfc TS opt+freq: rxn79

0 1
C   0.30696600  1.01716700  0.34265300
C   1.25438800 -0.10143600  0.69763400
C  -0.20086200 -1.65115200 -0.16409600
C  -1.23632400 -0.96866200  0.67897200
C  -0.83520700  0.21099800 -0.24299900
N  -0.07664700 -0.75778500 -1.11285600
H   0.64820100  1.76843800 -0.38289500
H   0.07048700  1.54579700  1.27997500
H   2.30679400  0.16468300  0.47990000
H   0.18702800 -2.66778600 -0.22047200
H  -1.03950200 -0.88747900  1.74924800
H  -2.24971800 -1.32944700  0.49141900
H  -1.62445700  0.77939400 -0.74161000

