%chk=ts_freq.chk
%nprocshared=4
#P wB97X/6-31G(d) opt(ts,calcfc,noeigentest,nomicro,maxcycles=150) freq

ReactOT exact pure Gaussian calcfc TS opt+freq: rxn6890

0 1
C  -1.37970650  1.74118820  0.68773884
C  -0.60433250  0.48990786  0.49384668
N  -0.66952860 -0.51950000 -0.41195830
C  -1.15414150 -1.75889280 -0.41888332
C   0.64306146  0.09635177 -0.22792284
C   1.68862990 -0.75415350  0.47140682
C   1.18322930  0.89180380 -1.41181080
H  -2.43050530  1.50490620  0.91917795
H  -0.98088940  2.31352970  1.52328200
H  -1.39339170  2.37581400 -0.21299726
H  -0.89163720 -0.76114464  1.66858570
H  -0.58689190 -2.51415730 -0.97168250
H  -1.04430000 -1.59030200  1.47744680
H  -2.23377700 -1.87564130 -0.35449230
H   2.46358100 -0.10603392  0.88714480
H   1.26805110 -1.37138460  1.26409400
H   2.16154380 -1.44409320 -0.26266614
H   0.36026317  1.37011100 -1.95580520
H   1.72575870  0.25401920 -2.11086100
H   1.87498310  1.65767170 -1.05364400

