%chk=ts_freq.chk
%nprocshared=4
#P wB97X/6-31G(d) opt(ts,calcall,noeigentest,nomicro,maxcycles=150) freq

ReactOT exact pure Gaussian calcall TS opt+freq: rxn2421

0 1
C  -0.51962240 -1.02075700  0.34417015
C  -0.28721076  0.29344130  1.04309820
C   0.53697940  0.79007626 -0.01543217
C   0.52460680 -0.54819983 -0.71586780
H  -1.52386210 -1.17442990 -0.08632173
H  -0.25692570 -1.92853650  0.90503854
H  -0.65002880  1.24098940 -0.02951711
H  -0.49481650  0.69287680  2.02938270
H  -0.37181494  1.72401920 -1.09032610
H   1.31694010  1.54947650 -0.02066101
H   0.22036074 -0.55544310 -1.76385340
H   1.50539420 -1.06351320 -0.59971040

