%chk=initial.chk
%nprocshared=4
#P wB97X/6-31G(d) SP

React-OT rxn9: fixed-geometry QM checkpoint for ML Hessian handoff

0 1
C   0.94450870 -0.63666975 -0.77969980
C   0.47105128 -0.39774920  0.88259810
C   0.98872700  0.89460690  1.13129600
C  0.12948531  0.41489710 -1.27770450
C  -1.25424500  0.31655848 -0.72413830
C  -1.05469110 -0.51257240  0.55873585
H   0.57912590 -1.66033210 -0.86816040
H   2.01870060 -0.57276535 -0.98731310
H   0.70360076 -1.15428170  1.64233530
H   1.59920720  1.41302600  0.38166896
H   1.06037310  1.29892710  2.12792090
H   0.42650150  1.20136650 -1.96469690
H  -1.95560770 -0.20172876 -1.40217970
H  -1.69224190  1.30263900 -0.52974490
H  -1.30954160 -1.56581000  0.40256765
H  -1.65495380 -0.14011177  1.40651480
