%chk=ts_freq.chk
%nprocshared=4
#P wB97X/6-31G(d) opt(ts,calcall,noeigentest,nomicro,maxcycles=150) freq

GSM eqV2 pure Gaussian calcall TS opt+freq: rxn7151

0 1
C   1.72207400  0.56841500 -0.65886900
N   0.44751800 -0.03254300 -0.99557500
C  -0.50169100 -0.23354100 -0.08429500
N  -1.75011300 -0.37975000 -0.32896600
N  -2.55274800 -1.27962600  0.01710200
C  -1.12547000 -2.67220900  1.19535600
C  -0.06495500 -2.08646700  1.03411800
H   1.74176500  0.72642900  0.42133800
H   2.55822400 -0.08292500 -0.93956100
H   1.85023700  1.53878500 -1.15318400
H   0.31016600 -0.31907500 -1.95772800
H  -3.51351300 -0.95940300 -0.14690100
H  -2.00044300 -3.26321700  1.34098600
H   0.99705200 -1.97062000  1.09132400

