%chk=ts_freq.chk
%nprocshared=4
#P wB97X/6-31G(d) opt(ts,calcfc,noeigentest,nomicro,maxcycles=150) freq

GSM eqV2 pure Gaussian calcfc TS opt+freq: rxn5234

0 1
C   0.41425400  0.34485700 -0.69767300
C   0.36159000 -1.10148600 -0.32053700
C  -0.48088300 -2.02543200 -0.74014600
C  -1.12338600 -0.79910900  2.11932500
O   1.25416300 -1.50678600  0.69273400
C   2.57290100 -1.48268100  0.40972600
O   3.05463100 -1.20052900 -0.65139300
H   1.36226400  0.59080600 -1.17970400
H   0.29145900  0.94863900  0.20840700
H  -0.40345100  0.58185000 -1.38172400
H  -1.22845200 -1.74694400 -1.47389200
H  -0.44538700 -3.05025700 -0.38262800
H  -1.72864600 -1.73300200  2.01560700
H  -0.27676900 -1.16379200  2.74436100
H   3.13331500 -1.76967400  1.30937000

