%chk=ts_freq.chk
%nprocshared=4
#P Opt=(TS,CalcAll,NoEigenTest,NoMicro,MaxCycles=150) Freq External='../../../../../production/external/horm.sh'

External--CalcAll initial TS guess: rxn5620

0 1
C  -1.47968600 -0.29986260  0.30675490
C  -0.62604886  0.46622726 -0.66196600
C   0.63145500  1.19309990 -0.16960157
O   1.77967390  0.78448360 -0.61358380
C   1.43262410 -0.46225762  0.62745297
N   0.77070500 -1.43293360  0.16999659
C  -0.42110780 -1.04776920 -0.48789388
H  -1.30065560 -0.14221139  1.36776220
H  -2.51336740 -0.47118077  0.02221286
H  -1.07352090  0.83985890 -1.57301210
H   0.68585610  0.55082820  1.05684320
H   0.49342980  2.25435520  0.05042767
H   2.37640240 -0.49815604  1.17081730
H  -0.75575984 -1.73448180 -1.26621010

