%chk=ts_freq.chk
%nprocshared=4
#P wB97X/6-31G(d) opt(ts,calcall,noeigentest,nomicro,maxcycles=150) freq

ReactOT exact pure Gaussian calcall TS opt+freq: rxn8931

0 1
C  -1.71273140  1.01166210 -0.66387590
C  -0.32013738  0.65323850 -0.12894134
O  -0.39365515  0.81689596  1.27226140
C   0.04705807 -0.78087440 -0.51161840
O   1.48020980 -1.00731310 -0.69142300
C   2.25597480 -1.10282340  0.35282250
O   1.77742610 -0.91775846  1.55217700
H  -2.45796560  0.28092664 -0.30818567
H  -1.72940120  1.01859210 -1.75648600
H  -2.00819590  1.99380800 -0.29354745
H   0.42743525  1.32307570 -0.56758094
H   0.39428276  0.42072186  1.65368120
H  -0.33454204 -1.03454140 -1.50689400
H  -0.35506335 -1.48860010  0.22086047
H   2.92930480 -1.18701000  1.37675010

