%chk=ts_freq.chk
%nprocshared=4
#P Opt=(TS,CalcAll,NoEigenTest,NoMicro,MaxCycles=150) Freq External='../../../../../production/external/horm.sh'

External--CalcAll initial TS guess: rxn3162

0 1
C   0.69109300  0.04439500 -0.54827400
C  -0.29784500 -0.90867800  0.02693700
C  -0.21155200  0.49883500  0.56523700
C  -1.66038500  0.89261800  0.15585100
O  -1.73583900  0.50713900 -1.21164300
C  -1.72098700 -0.70341600 -0.50906400
H   0.54348600  0.44030300 -1.54776000
H   1.72226400 -0.12598000 -0.25400700
H  -0.02459000 -1.79687600  0.58450000
H   0.15843400  0.76151200  1.54954100
H  -2.35320200 -0.22875700  0.49704400
H  -2.40168600 -1.44811900 -0.91714600

