%chk=ts_freq.chk
%nprocshared=4
#P Opt=(TS,CalcAll,NoEigenTest,NoMicro,MaxCycles=150) Freq External='../../../../../production/external/horm.sh'

External--CalcAll initial TS guess: rxn1795

0 1
O  -0.49970177 -1.05585350  0.49230940
C  -0.51300570 -0.00184637 -0.84666896
C  -0.11336864  1.16530070 -0.01241371
O   1.04462240  0.60087200  0.64694370
C   0.97138846 -0.70137227  0.33613315
O   1.79055070 -1.55265200  0.31644680
H  -0.56485766 -1.94866090  0.12800309
H  -1.54429730 -0.03811311 -1.20056100
H  -0.77986866  1.52612410  0.79007800
H   0.20853800  2.00620130 -0.65027034

