%chk=ts_freq.chk
%nprocshared=4
#P wB97X/6-31G(d) opt(ts,calcfc,noeigentest,nomicro,maxcycles=150) freq

GSM eqV2 pure Gaussian calcfc TS opt+freq: rxn4933

0 1
C  -2.23159500 -0.05175700 -0.64298800
C  -1.71040700 -0.49205500  0.69337000
C  -1.73728600 -1.84713400  1.05493000
O  -1.83192300 -2.12551800  2.42615900
N   0.29269200 -0.00043300  0.42258300
C   1.09099400 -1.00924700  0.25482500
O   0.80410700 -2.18145500  0.69886600
H  -1.73849700  0.85279700 -1.00539600
H  -3.30240200  0.16576200 -0.54133700
H  -2.11973600 -0.84054100 -1.39326700
H  -1.72135700  0.23555000  1.49771900
H  -2.25389400 -2.53850400  0.37995900
H  -0.42255700 -2.09280400  0.77656700
H  -1.12172800 -2.74047900  2.65294500
H   0.59757200  0.84019800 -0.05954900
H   2.05121100 -0.90956600 -0.27968500

