%chk=ts_freq.chk
%nprocshared=4
#P wB97X/6-31G(d) opt(ts,calcfc,noeigentest,nomicro,maxcycles=150) freq

ReactOT exact pure Gaussian calcfc TS opt+freq: rxn3600

0 1
O   2.33240530  0.27791655 -0.28738067
C   1.16150250  0.08161678 -0.07703115
N   0.49289283 -1.11831210  0.19772583
C  -0.86072540 -1.01272650  0.43699744
C  -1.07534220  0.37196850  0.18689172
N   0.12149609  1.01469410 -0.06239366
H   1.00349830 -1.98313940  0.21439879
H  -1.46644440 -0.52750970 -0.65313494
H  -1.98547330  0.92342030  0.37261787
H   0.27619007  1.97207140 -0.32869120

