%chk=ts_freq.chk
%nprocshared=4
#P wB97X/6-31G(d) opt(ts,calcfc,noeigentest,nomicro,maxcycles=150) freq

ReactOT exact pure Gaussian calcfc TS opt+freq: rxn2410

0 1
C  -1.75654040 -0.24140504 -0.05079933
C  -0.35280317 -0.21128383 -0.28187832
C   0.79032236 -0.95575960 -0.39693564
C   1.82524050 -0.14724542  0.15473047
N   1.45384820  1.01945720  0.60854700
N   0.06393547  1.04406550  0.30851865
H  -2.36455080  0.45623216 -0.63287960
H  -2.26188230 -1.20950260 -0.00946114
H  -0.96665335  0.82697840  0.93195736
H   0.87472980 -1.99325160 -0.69424826
H   2.85492280 -0.46392706  0.29141098
H  -0.16056927  1.87564200 -0.22896211

