%chk=ts_freq.chk
%nprocshared=4
#P wB97X/6-31G(d) opt(ts,calcfc,noeigentest,nomicro,maxcycles=150) freq

GSM eqV2 pure Gaussian calcfc TS opt+freq: rxn4821

0 1
O   1.27278300 -1.83211500  0.17160300
C   0.23307300 -1.27259500  0.20003000
N   0.25974100  0.61456000  0.41442700
C  -0.58469900  0.60198500 -0.57930200
C  -1.11192500 -0.69760000 -0.74709800
O  -1.01254500 -1.43576500  0.53416400
H   0.93628200  1.36670300  0.45760400
H  -0.75390500  1.41464300 -1.28765200
H  -1.80943400 -1.10816100 -1.45851400

