%chk=ts_freq.chk
%nprocshared=4
#P wB97X/6-31G(d) opt(ts,calcall,noeigentest,nomicro,maxcycles=150) freq

ReactOT exact pure Gaussian calcall TS opt+freq: rxn6660

0 1
C  -1.22731800  1.15480540 -0.45390427
C  -0.52410454 -0.06727900  0.07759634
C   1.54878560  0.31622800 -0.88174870
C   2.12500600 -0.25535330  0.17043583
N   2.19348290 -0.84450370  1.24320380
C  -0.47191220 -0.81814975  1.18575560
N  -0.70511210 -1.43295060 -0.10385971
H  -0.84799194  2.05386700  0.02999949
H  -1.15151360  1.23958720 -1.53085640
H  -2.29392740  1.06288680 -0.21413076
H   1.49226140  1.39512170 -0.94729495
H   1.46378230 -0.26110890 -1.79444030
H  -1.00117950 -0.82972187  2.11809970
H   1.06971110 -1.04608380  1.47896120
H  -1.66996990 -1.66734520 -0.37781670

