%chk=ts_freq.chk
%nprocshared=4
#P Opt=(TS,CalcAll,NoEigenTest,NoMicro,MaxCycles=150) Freq External='../../../../../production/external/horm.sh'

External--CalcAll initial TS guess: rxn6684

0 1
N   2.59990300  0.66328000  2.10340500
C   2.12723900  0.47975300  1.06225600
C   1.66750000  0.24764900 -0.31162100
C   0.41054100 -0.39942900 -0.62136500
C  -0.94183400 -0.34946200  0.67208600
C  -0.67732400  0.89947200  1.19587100
N   0.47387100  0.89318100 -0.89889200
H   2.53734100  0.14306600 -1.02138800
H   0.16521200 -1.25855600 -1.27613300
H  -1.59508500 -0.46211100 -0.17375200
H  -1.24986100 -1.04280000  1.46086100
H  -1.41067300  1.26615900  1.94220000
H   0.18182700  1.54892300  1.11863300

