%chk=ts_freq.chk
%nprocshared=4
#P wB97X/6-31G(d) opt(ts,calcall,noeigentest,nomicro,maxcycles=150) freq

ReactOT exact pure Gaussian calcall TS opt+freq: rxn4317

0 1
C  -1.33670440 -0.13437596  0.06539891
C  -0.02334286  0.37330508  0.12452057
C   1.03481070 -0.63708633  0.43797368
O   0.84414500 -1.02249520 -0.89489380
C   0.37511572  1.62338840 -0.47164539
N   0.67530820  2.66450000 -0.88789797
H  -2.09310300  0.45430055 -0.44663903
H  -0.55027850 -0.95188093 -0.68067410
H  -1.66948330 -0.75295323  0.89268064
H   2.02559140 -0.23582987  0.67479473
H   0.71794080 -1.38087260  1.18638170

