%chk=ts_freq.chk
%nprocshared=4
#P wB97X/6-31G(d) opt(ts,calcall,noeigentest,nomicro,maxcycles=150) freq

GSM eqV2 pure Gaussian calcall TS opt+freq: rxn9737

0 1
C  -2.32036900 -0.42559500  0.14498700
C  -0.93206000  0.08494700  0.34028300
C   0.14622300  0.01593200 -0.67707800
C   1.12763200  0.01961300  0.24383900
O   2.43909300 -0.15201300  0.16295500
N   0.51268400  0.07167900  1.54566000
N  -0.69295900  0.81488600  1.47623300
H  -2.92900400 -0.26286700  1.03083500
H  -2.35958100 -1.46855000 -0.17180100
H  -2.71472000  0.17441000 -0.69227500
H   0.08883900 -0.08292500 -1.75336400
H   2.77134800 -0.18512200  1.07323200
H  -0.70934900  1.83295900  1.55093700

