%chk=ts_freq.chk
%nprocshared=4
#P wB97X/6-31G(d) opt(ts,calcfc,noeigentest,nomicro,maxcycles=150) freq

ReactOT exact pure Gaussian calcfc TS opt+freq: rxn4461

0 1
C  -1.31577590 -0.39755186 -0.44365826
C   0.18394691 -0.15837966 -0.52417220
C   0.70860565  1.09259810  0.07807392
O   0.43023422  1.31955580  1.33594240
C   1.04550240 -0.63439470  0.56964550
O   0.51059750 -0.32330060  1.73206320
H  -1.56699570 -1.45006290 -0.60194920
H  -1.70788200 -0.09838054  0.53904200
H  -1.84499260  0.20916033 -1.19289570
H   0.59890836 -0.31730628 -1.51938400
H   0.99298805  1.97135910 -0.49177116
H   1.96486330 -1.21329690  0.51906350

