%chk=ts_freq.chk
%nprocshared=4
#P wB97X/6-31G(d) opt(ts,calcfc,noeigentest,nomicro,maxcycles=150) freq

ReactOT exact pure Gaussian calcfc TS opt+freq: rxn2839

0 1
C  -1.15833520  0.84514270 -0.04853983
C  -0.47894260 -0.42806890  0.40329954
N   0.10609943 -1.36113440 -0.56666660
C   0.98541680 -0.65597080  0.32604540
C   2.21459650  0.16555716 -0.49831860
N   1.66472630  1.05171790  0.06255282
H  -0.63006103  1.29312500 -0.89898630
H  -2.18812200  0.64232904 -0.35462183
H  -1.17046740  1.58805300  0.75778540
H  -0.97495615 -0.93513820  1.23403900
H   0.12220626 -0.97689730 -1.50100540
H   1.50783920 -1.22871520  1.08441640

