%chk=ts_freq.chk
%nprocshared=4
#P wB97X/6-31G(d) opt(ts,calcfc,noeigentest,nomicro,maxcycles=150) freq

GSM eqV2 pure Gaussian calcfc TS opt+freq: rxn4066

0 1
N  -2.35284700 -0.06139800 -0.11529100
C  -0.94060200 -0.11440100 -0.13109500
C  -0.02592900 -1.09953800 -0.54946000
C   1.21736400 -0.37647700 -0.17717100
N   1.01921100  0.92197500  0.30998100
N  -0.27345500  0.98838300  0.32242200
H  -2.70930800 -0.98530200  0.10527000
H  -2.71824400  0.18327600 -1.03171400
H   1.00635400 -1.13498300  0.65988500
H   2.19967600 -0.58910100 -0.59116300
H  -0.72329700  1.82218500  0.68912600

