%chk=ts_freq.chk
%nprocshared=4
#P Opt=(TS,CalcAll,NoEigenTest,NoMicro,MaxCycles=150) Freq External='../../../../../production/external/horm.sh'

External--CalcAll initial TS guess: rxn5703

0 1
O  -1.58953300  1.84827200  0.33183700
C  -1.98212800  0.63260500 -0.27118000
C  -1.38114500 -0.50897300  0.53237500
C   0.11437000 -0.50282600  0.41690200
O   0.67829700 -0.62646000 -0.71440600
C   0.99860300 -0.24703400  1.46891100
O   2.37260000 -0.28388300  0.88356100
H  -1.85894700  2.57026500 -0.24719300
H  -1.63110100  0.55011700 -1.30896900
H  -3.07743700  0.52335700 -0.27947400
H  -1.75198700 -1.44895400  0.11079700
H  -1.68977800 -0.45236200  1.58328100
H   1.85382300  0.73186900  1.20516600
H   0.89993800 -0.43108300  2.53014200
H   1.92260500 -0.45187400 -0.15435000

