%chk=ts_freq.chk
%mem=6GB
%nprocshared=4
#P Opt=(TS,CalcAll,NoEigenTest,NoMicro,MaxCycles=150) Freq External='../../../../../production/external/horm.sh'

External--CalcAll initial TS guess: rxn8689

0 1
N   0.48329252  1.34404020  1.00878440
C   0.01834206  0.25999448  0.24576655
C  -1.26980870  0.16050169 -0.57027580
C  -0.79386080 -0.84173954  0.41616803
O   0.52601700 -1.90257490 -0.81011350
C   1.10874120 -0.82548267 -0.59071124
O   2.18437720 -0.31979716 -0.80381805
H   0.88548756  2.02334480  0.35868478
H   1.22786380  1.05470880  1.63261150
H  -2.10447700  0.79769060 -0.30327642
H  -1.18844990 -0.07678409 -1.63505500
H  -1.07752500 -1.67390230  1.05123470

