%chk=ts_freq.chk
%nprocshared=4
#P wB97X/6-31G(d) opt(ts,calcall,noeigentest,nomicro,maxcycles=150) freq

ReactOT exact pure Gaussian calcall TS opt+freq: rxn4988

0 1
C  -1.89464570  0.80712100  0.72179620
N  -0.48926347  0.51352805  0.95909090
C   0.27236632  0.31546843 -0.21660784
C   1.78704660  0.00914947 -0.09482493
O   1.93269970 -0.76008840 -1.22828500
C   0.06717834 -0.93144715 -1.04249720
N  -0.14767215 -2.08229950 -1.29575560
H  -2.42327240  0.01098971  0.18359886
H  -2.38567020  0.94884590  1.69636740
H  -1.98425700  1.75025920  0.17161850
H  -0.38670373 -0.29357110  1.57169990
H   0.13718404  1.18721460 -0.88636190
H   2.01836820 -0.51900760  0.83851560
H   2.40325950  0.91414170 -0.09236030
H   1.09338220 -1.87030430 -1.28599450

