%chk=ts_freq.chk
%nprocshared=4
#P wB97X/6-31G(d) opt(ts,calcall,noeigentest,nomicro,maxcycles=150) freq

ReactOT exact pure Gaussian calcall TS opt+freq: rxn5775

0 1
C   1.45140390 -0.70571953  1.23904680
C   0.36141740 -0.35609907  0.27197194
C   0.16419533  1.01713140 -1.54182330
C  -0.10238168  1.01711320 -0.09974769
C  -1.43976400  0.28942080  0.21301198
N  -1.71524330 -0.59389740 -0.88336160
C  -0.78531320 -1.16012750  0.01517362
H   1.29225930 -0.22459623  2.20438000
H   2.39869480 -0.32890785  0.82334125
H   1.54702330 -1.78572170  1.36326480
H   1.21421770  1.00936910 -1.84309720
H  -0.40318888  1.74460450 -2.14140840
H   0.11428297  1.84495210  0.58693767
H  -2.11288020  0.52220010  1.02950620
H  -1.02112530 -0.14741981 -1.67918470
H  -0.96359783 -2.14230230  0.44198883

