%chk=ts_freq.chk
%nprocshared=4
#P wB97X/6-31G(d) opt(ts,calcall,noeigentest,nomicro,maxcycles=150) freq

ReactOT exact pure Gaussian calcall TS opt+freq: rxn4956

0 1
O   3.05676030 -0.22736280 -0.24956330
C   1.82176450 -0.17284948 -0.16578734
N   1.37780860 -1.36768820 -0.49727395
C  -0.97067920 -1.20682610 -0.22230883
C  -1.14593340  0.09960086  0.52052784
C  -0.26384416  1.19848540 -0.03659230
N   1.13570950  0.95185880  0.24331217
H   0.12082398 -1.69286850 -0.14210343
H  -1.21049000 -1.14000150 -1.28847280
H  -1.51294600 -2.03996520  0.23662025
H  -0.94883070 -0.01616197  1.59315530
H  -2.22334580  0.40796300  0.42650738
H  -0.54009050  2.14972420  0.42324167
H  -0.44828376  1.30788700 -1.12062630
H   1.75157650  1.74820480  0.27936366

