%chk=ts_freq.chk
%nprocshared=4
#P Opt=(TS,CalcAll,NoEigenTest,NoMicro,MaxCycles=150) Freq External='../../../../../production/external/horm.sh'

External--CalcAll initial TS guess: rxn3323

0 1
C  -1.53360200 -0.03504200  0.64064600
C   0.00280300  0.29245400 -0.14745300
O   0.29080900  0.12798700 -1.43282400
C   2.21826600  1.39466000 -1.40674200
N   3.84935600  2.51643900 -2.00540800
H  -1.85770200 -0.32881100 -0.55175900
H  -2.42143700  0.61175500  1.21868200
H  -0.81671000 -1.07032700  0.70081600
H   1.00210500  0.37303700  0.55839400
H   2.64013200  0.30136700 -2.36539300

