%chk=ts_freq.chk
%nprocshared=4
#P Opt=(TS,CalcAll,NoEigenTest,NoMicro,MaxCycles=150) Freq External='../../../../../production/external/horm.sh'

External--CalcAll initial TS guess: rxn7427

0 1
C   0.78177524  0.30664337  1.69447420
O   0.96493375 -0.86559520  1.13064940
C   0.26528640 -1.16164640 -0.03493030
C  -1.02730000 -0.52507010 -0.48619765
O  -1.28490690  0.73164710  0.14628923
C   0.00691726  1.16806800 -0.22100103
C   0.29458332 -0.06101625 -1.06684320
H   0.93245130  1.23185830  0.74943364
H  -0.27360556  0.36657926  2.03158860
H   0.42416012 -2.19437030 -0.34110350
H  -1.85681350 -1.06689720 -0.91071975
H   0.00811581  2.17152200 -0.65125453
H   0.76440275 -0.10172259 -2.04038500

