%chk=ts_freq.chk
%nprocshared=4
#P wB97X/6-31G(d) opt(ts,calcall,noeigentest,nomicro,maxcycles=150) freq

ReactOT exact pure Gaussian calcall TS opt+freq: rxn2104

0 1
O  -1.54478360  1.60148930  0.26766443
C  -0.49691750  1.04085250  0.43928254
C  -0.43186456 -0.67055184 -0.21759772
N   0.88586530 -1.35008660  0.27953476
C   1.12462640 -0.24259217 -0.12469521
O   0.63247910  1.19201870  0.91867050
H  -1.16365580 -0.96818700  0.53232840
H  -0.75717360 -0.85396814 -1.24059320
H   1.75142430  0.25102520 -0.85459450

