%chk=ts_freq.chk
%nprocshared=4
#P Opt=(TS,CalcAll,NoEigenTest,NoMicro,MaxCycles=150) Freq External='../../../../../production/external/horm.sh'

External--CalcAll initial TS guess: rxn7184

0 1
C  -1.98800580  0.58778065  0.00964544
C  -0.68474330 -0.06314053  0.38189775
O  -0.44773206 -1.17713260 -0.48721722
C   0.71618550 -1.64949380 -0.29552913
C   1.59887990  0.21889497  0.11633116
N   2.70373270  0.75566030 -0.16924776
O   0.39790310  0.82415460  0.14654577
H  -2.15310980  1.47226180  0.62617590
H  -2.80746960 -0.11513221  0.15586680
H  -1.94655230  0.90787410 -1.04788680
H  -0.66095830 -0.43848264  1.40946050
H   1.56879890 -0.85629654  0.50969090
H   1.08421180 -2.22500040 -1.13062020
H   2.61885880  1.75805230 -0.22511300

