%chk=ts_freq.chk
%nprocshared=4
#P Opt=(TS,CalcAll,NoEigenTest,NoMicro,MaxCycles=150) Freq External='../../../../../production/external/horm.sh'

External--CalcAll initial TS guess: rxn1716

0 1
O  -2.41894340 -0.73053145 -0.19109504
C  -1.50003330  0.22576450 -0.33190894
C   0.46397102  0.13700335  0.06694054
O  -0.01616409 -0.93437064 -0.40704160
C   1.82960690  0.16728187  0.48254654
C   2.93957690  0.37913194  0.88124150
H  -2.31145760 -1.38327480 -0.88124275
H  -1.60893560  0.97812814  0.46081483
H  -1.30624620  0.62542874 -1.31554340
H   3.92862560  0.53543836  1.23528840

