%chk=ts_freq.chk
%nprocshared=4
#P wB97X/6-31G(d) opt(ts,calcall,noeigentest,nomicro,maxcycles=150) freq

ReactOT exact pure Gaussian calcall TS opt+freq: rxn5014

0 1
C   1.76802060 -0.19741233 -1.23331430
C   1.08967330  0.04681204  0.06351797
O   0.49579814  2.05521460 -0.68901310
C  -0.44540688  1.61982620  0.14582075
C  -0.29724208 -0.19579820  0.30703170
C  -0.70525855 -0.54836076  1.72263780
C  -1.10490440 -0.88722193 -0.76933500
H   2.81982730  0.07672925 -1.20526560
H   1.64648140 -1.24748590 -1.50379790
H   1.25869800  0.43381032 -1.96648120
H   1.69919380  0.33687067  0.92782784
H  -1.51083760  1.76728870 -0.12396807
H  -0.29867265  1.85217050  1.20508980
H  -0.06207921 -0.06276424  2.46427420
H  -0.64718294 -1.63258680  1.89892660
H  -1.73815970 -0.24314022  1.90149430
H  -0.93206160 -1.95922680 -0.77539420
H  -0.86236453 -0.50099250 -1.76935230
H  -2.17352220 -0.71373250 -0.60069895

