%chk=ts_freq.chk
%nprocshared=4
#P Opt=(TS,CalcAll,NoEigenTest,NoMicro,MaxCycles=150) Freq External='../../../../../production/external/horm.sh'

External--CalcAll initial TS guess: rxn1328

0 1
C   2.06471500 -0.02924000  0.45291000
C   1.59998700  0.06717500  0.11574300
C   0.14289900  0.24926400 -0.74489700
C  -0.82892900 -0.35263900  0.23384000
C  -1.39853200  1.04294000  0.36600500
O  -0.44932300  1.47545400 -0.63547500
H   3.05202900 -0.16803000  1.07513400
H   0.03493700 -0.07416400 -1.56854300
H  -1.54419200 -1.02081800 -0.28210900
H  -0.34958100 -0.72667400  1.11608300
H  -1.21897400  1.53547100  1.37208900
H  -2.40389900  1.29355500  0.04287600

