%chk=ts_freq.chk
%nprocshared=4
#P wB97X/6-31G(d) opt(ts,calcall,noeigentest,nomicro,maxcycles=150) freq

GSM eqV2 pure Gaussian calcall TS opt+freq: rxn8854

0 1
C   2.63020600 -0.13526300 -0.35132000
C   1.42025700 -0.67911400  0.25369200
C   0.40341400 -1.13146400  0.74044700
C  -0.78985600 -1.59756900  1.29340700
C  -2.11730800 -1.17843000  0.84450900
O  -3.19425500 -1.70202100  1.28155800
C  -2.10156300  0.44174700  1.01304100
H   2.66483800  0.95310400 -0.23222700
H   2.65111900 -0.35393000 -1.42477300
H   3.52834200 -0.56334900  0.10352000
H  -0.72371500 -2.33913400  2.09194600
H  -1.94588700 -1.18969800 -0.28292000
H  -2.92024300  0.79428200  0.38505900
H  -2.33939200  0.63935800  2.05905700
H  -1.16408800  0.91783700  0.71806800

