%chk=ts_freq.chk
%nprocshared=4
#P wB97X/6-31G(d) opt(ts,calcfc,noeigentest,nomicro,maxcycles=150) freq

ReactOT exact pure Gaussian calcfc TS opt+freq: rxn1816

0 1
C  -2.13245580  0.64315486 -0.17465678
O  -1.03504990 -0.12568780 -0.64101076
C  -0.22497539 -0.62844000  0.36881548
C   1.08986870 -0.98746200  0.06729930
C   1.90901020  0.09003609 -0.56601864
O   1.92402590  0.61483955  0.75698510
H  -2.77410960  0.05382074  0.47775420
H  -1.77501940  1.52903410  0.38100928
H  -2.69590190  0.96560100 -1.05895610
H  -0.77247244 -1.23432660  1.08471950
H   0.59676945  0.34483814  0.89921680
H   1.61193840 -1.76911930  0.60234773
H   1.37567510  0.70259255 -1.29334860
H   2.90269760 -0.19888139 -0.90415657

