%chk=ts_freq.chk
%nprocshared=4
#P wB97X/6-31G(d) opt(ts,calcfc,noeigentest,nomicro,maxcycles=150) freq

GSM eqV2 pure Gaussian calcfc TS opt+freq: rxn874

0 1
N   1.93012700 -0.34879000  0.48272500
C   0.80581700 -1.11085900  0.34907300
O   0.64114200 -2.24256600  0.69403300
N  -0.11528100  0.76178000 -1.19305700
C  -0.44233600  0.19243900 -0.03457700
O  -0.84870100 -0.80308600 -0.78202900
H   2.74004000 -0.65008300  0.99945800
H   1.96602900  0.49637400 -0.09539100
H  -0.05401900  1.71461600 -1.50521000
H  -0.93331700  0.53402000  0.87911300

