%chk=ts_freq.chk
%nprocshared=4
#P wB97X/6-31G(d) opt(ts,calcfc,noeigentest,nomicro,maxcycles=150) freq

ReactOT exact pure Gaussian calcfc TS opt+freq: rxn3729

0 1
C  -0.94107860  1.36855150 -0.09727688
C  -0.32714397  0.11244490 -0.57834697
C   1.06886760 -0.29408930  0.87798804
O   0.19671068  0.07416649 -1.77466490
C  -0.27581600 -1.19421770  0.03797563
O   0.14853340 -2.13318510 -0.72088010
H  -0.25943756  2.21118430 -0.20357838
H  -1.81591930  1.57478710 -0.73322135
H  -1.27391090  1.28959740  0.92762100
H   1.50027490 -1.22458910  1.25964490
H   0.74727863  0.34434053  1.69963700
H   1.81153570  0.19892062  0.24840693
H   0.35170826 -0.94389796 -1.84632100
H  -0.93160290 -1.38401380  0.90301585

