%chk=ts_freq.chk
%nprocshared=4
#P wB97X/6-31G(d) opt(ts,calcall,noeigentest,nomicro,maxcycles=150) freq

ReactOT exact pure Gaussian calcall TS opt+freq: rxn6751

0 1
O  -2.43796090 -0.92588800  0.52832663
C  -1.45460070 -0.33097780 -0.04457388
C  -0.77058530  1.01344930  0.00733634
C   0.51276624  0.14597514 -0.19426984
C   1.83543670  0.29981290  0.37843180
O   1.58287380  0.56390846 -1.00263730
C  -0.32498170 -1.09661530 -0.44187080
H  -0.86891437  1.59742950  0.93488080
H  -0.94827010  1.65394570 -0.86143990
H   2.06400470  1.18443310  0.97814070
H   2.44710300 -0.57621270  0.57835540
H  -0.20056756 -1.78420000 -1.27505020
H  -1.43630410 -1.74506020  0.41437024

