%chk=ts_freq.chk
%nprocshared=4
#P wB97X/6-31G(d) opt(ts,calcfc,noeigentest,nomicro,maxcycles=150) freq

GSM eqV2 pure Gaussian calcfc TS opt+freq: rxn4850

0 1
C  -0.91367500  0.67600300  1.18123100
C  -0.59659500 -0.30779900 -0.66856400
O   0.28753300  0.40556000 -1.29703300
C   1.56762100  0.34024600 -0.58430700
O   2.06497100 -0.74132200 -0.34647900
C   1.65774600  1.59287400  0.04191700
O   2.69164100  1.82619000  0.91872800
H  -0.60803400  1.19854500  2.10383800
H  -1.82813800  1.17221300  0.84888500
H  -1.13922000 -0.32885800  1.55080100
H  -1.60725300 -0.22064200 -1.05737300
H  -0.26805700 -1.24752000 -0.22871800
H   1.32174900  2.48757900 -0.47071100
H   0.19753000  1.07602600  0.69061400
H   2.94678700  0.96893700  1.29072300

