%chk=ts_freq.chk
%nprocshared=4
#P wB97X/6-31G(d) opt(ts,calcall,noeigentest,nomicro,maxcycles=150) freq

ReactOT exact pure Gaussian calcall TS opt+freq: rxn4323

0 1
C  -1.57214930  0.14447336  0.52865970
O  -0.18188310 -0.20496252  0.70086670
C   0.47731170 -0.33686250 -0.44990530
O  -0.00658822 -0.51149200 -1.54283440
C   2.03608440  0.39840660 -0.28893763
O   1.86825970 -0.86106247 -0.11901519
H  -1.94834280  0.35326780  1.53032550
H  -1.66506840  1.03278200 -0.10406367
H  -2.11175270 -0.68759110  0.07664089
H   3.10412880  0.67304080 -0.33173660

