%chk=ts_freq.chk
%nprocshared=4
#P wB97X/6-31G(d) opt(ts,calcall,noeigentest,nomicro,maxcycles=150) freq

ReactOT exact pure Gaussian calcall TS opt+freq: rxn874

0 1
N   1.51266650  0.37189260  0.38408715
C   0.48519254 -0.53038734  0.53757510
O   0.52049790 -1.63040040  0.98447530
N  -0.62303907 -0.19921510 -0.92516047
C  -1.45360020  0.29971656 -0.06736826
O  -0.93601080  0.39230978  1.07666680
H   2.42041600 -0.03427284  0.53818345
H   1.44147480  1.01064550 -0.38900510
H  -0.90015050 -0.34862050 -1.89282130
H  -2.46744730  0.66833160 -0.24663268

