%chk=ts_freq.chk
%nprocshared=4
#P wB97X/6-31G(d) opt(ts,calcfc,noeigentest,nomicro,maxcycles=150) freq

ReactOT exact pure Gaussian calcfc TS opt+freq: rxn4933

0 1
C  -1.34675230  1.35774610 -0.35896194
C  -0.60799736  0.38322002  0.49691036
C  -0.81883760 -0.99044140  0.41153312
O  -0.61630060 -1.71453940  1.60569580
N   1.34043870  0.78275250 -0.27229200
C   2.00764820 -0.27403992 -0.60503580
O   1.46543010 -1.45138750 -0.70945770
H  -0.78035927  2.28275280 -0.50380194
H  -2.29529600  1.60848860  0.12571529
H  -1.54819150  0.95578060 -1.34678770
H  -0.24359965  0.77124540  1.45477380
H  -1.62941680 -1.31971180 -0.23269111
H   0.33046114 -1.27441440 -0.31593063
H  -0.19538684 -2.53965020  1.39073290
H   1.87026260  1.63192100 -0.28027225
H   3.06789680 -0.20972213 -0.86013025

