%chk=ts_freq.chk
%nprocshared=4
#P wB97X/6-31G(d) opt(ts,calcall,noeigentest,nomicro,maxcycles=150) freq

ReactOT exact pure Gaussian calcall TS opt+freq: rxn144

0 1
C  -1.82062110 -0.54859610 -0.18637003
C  -0.46354362 -0.72538990 -0.76682130
O   0.06599542  1.39600340 -0.27588326
C   1.20724840  1.46011780  0.28337327
C   1.57262700 -0.18525997  0.88029486
O   2.32028220 -0.69229305  1.60803900
H  -2.20429700  0.45101726 -0.30274805
H  -1.83173360 -0.83180743  0.87785880
H  -2.51421380 -1.23139690 -0.69173133
H  -0.09526257 -1.75442180 -0.68707144
H  -0.32881233 -0.35367240 -1.78320360
H   1.29225710  2.01381020  1.22224570
H   2.13105500  1.56282600 -0.32811484
H   0.66901904 -0.56093710  0.15013221

