%chk=ts_freq.chk
%nprocshared=4
#P Opt=(TS,CalcAll,NoEigenTest,NoMicro,MaxCycles=150) Freq External='../../../../../production/external/horm.sh'

External--CalcAll initial TS guess: rxn6857

0 1
O  -0.46806076  1.97555030 -1.04196700
C  -0.47801632  0.94195604 -0.45798436
C  -1.35772420 -0.12100442  0.05973175
C  -0.08784534 -0.84215957 -0.33893800
C   1.11033080 -0.68098205  0.36357534
C   1.35558600  0.64038116  0.61610943
O   2.02446650  1.56834660  0.90940760
H  -1.60280790 -0.11015800  1.12517830
H  -2.19828530 -0.33960490 -0.58762820
H  -0.20243181 -1.61970170 -1.09283900
H   1.90478840 -1.41262350  0.44535413

