%chk=ts_freq.chk
%mem=6GB
%nprocshared=4
#P Opt=(TS,CalcAll,NoEigenTest,NoMicro,MaxCycles=150) Freq External='../../../../../production/external/horm.sh'

External--CalcAll initial TS guess: rxn9044

0 1
N   0.90237650  1.51324020 -0.16680220
C   1.31729090  0.33213320  0.03335010
C   0.38099006 -0.79506814  0.12225492
C  -0.91833740 -0.52685620  0.07246438
C  -2.06747870  0.14357589  0.18754020
H   1.69256190  2.16882180 -0.18477753
H   2.37203200  0.05758362  0.15141650
H   0.76118135 -1.81494500  0.22475463
H  -1.78454230 -1.30837150  0.28596398
H  -2.65607430  0.22988605 -0.72616494

