%chk=ts_freq.chk
%nprocshared=4
#P Opt=(TS,CalcAll,NoEigenTest,NoMicro,MaxCycles=150) Freq External='../../../../../production/external/horm.sh'

External--CalcAll initial TS guess: rxn2687

0 1
C   2.26393340  0.38137975 -0.17706263
C   1.17772460 -0.03985544  0.14890880
C   0.08271512 -1.27994430  0.35586044
C  -0.33028698  0.07251982  0.50637615
C  -1.39356680  0.75428230 -0.52895010
O  -2.48610930  0.51010466  0.12810275
H   3.18873570  0.86080050 -0.42517015
H   0.16765845 -1.96214690  1.20039530
H   0.08257680 -1.75309980 -0.62492080
H  -0.48805296  0.40395150  1.53040930
H  -1.19510190  0.24006276 -1.49640330
H  -1.07022620  1.81194520 -0.61754570

