%chk=ts_freq.chk
%nprocshared=4
#P wB97X/6-31G(d) opt(ts,calcall,noeigentest,nomicro,maxcycles=150) freq

GSM eqV2 pure Gaussian calcall TS opt+freq: rxn7566

0 1
C  -2.03440200  0.70067100  0.91195400
C  -1.48119300 -0.55387500  0.25439100
N  -0.08132200 -0.42253600 -0.17378900
C   0.88743800 -0.68269300  0.65322500
O   1.10160700 -1.02179000  1.75791200
O   2.05052100  0.55423900 -0.90297600
C   2.93968400 -0.20981800 -0.32706700
H  -2.01420100  1.56319500  0.24048000
H  -3.06928400  0.50932600  1.21338600
H  -1.46347000  0.94566500  1.81235700
H  -1.52442200 -1.38553800  0.95821200
H  -2.06400200 -0.84889200 -0.61786100
H   0.25809700  0.12291300 -0.97105300
H   3.86439100 -0.46553400 -0.87420100
H   3.15358400 -0.04530400  0.75473200
H   2.27683600 -1.28102700 -0.04741000

