%chk=ts_freq.chk
%nprocshared=4
#P wB97X/6-31G(d) opt(ts,calcfc,noeigentest,nomicro,maxcycles=150) freq

GSM eqV2 pure Gaussian calcfc TS opt+freq: rxn4314

0 1
C  -1.05548000 -1.20889200 -0.49185900
C   0.42705700 -1.06103200 -0.65817900
C   1.47470800 -1.49025100  0.22020600
O   1.06571000 -1.40778800 -1.70129500
C   0.84927000  0.52094200  0.29843400
N   0.61363500  1.66277100  0.39728500
H  -1.49043500 -1.22782900 -1.48714300
H  -1.29249300 -2.15390800 -0.00083100
H  -1.51733100 -0.38654300  0.07487900
H   2.38337800 -0.96538500 -0.05124100
H   1.63591200 -2.34648300  0.89637500

