%chk=ts_freq.chk
%nprocshared=4
#P wB97X/6-31G(d) opt(ts,calcfc,noeigentest,nomicro,maxcycles=150) freq

GSM eqV2 pure Gaussian calcfc TS opt+freq: rxn2779

0 1
C   1.46014300 -0.04571200 -0.28761500
C  -0.02010900 -0.02746100 -0.59873500
N  -1.63696000 -0.41962000  0.81377100
C  -0.84290600  0.81094200 -0.17111500
N  -0.60877700  1.97291200  0.23234900
H   2.06403500  0.47731300 -1.03853300
H   1.70358000  0.41706900  0.68229800
H   1.77551500 -1.07947200 -0.29184700
H  -0.31451700 -0.51262400 -1.56115800
H  -2.39477400  0.16401500  1.12514700
H  -1.00445300 -0.70808600  1.57405200

