%chk=ts_freq.chk
%nprocshared=4
#P wB97X/6-31G(d) opt(ts,calcall,noeigentest,nomicro,maxcycles=150) freq

GSM eqV2 pure Gaussian calcall TS opt+freq: rxn7890

0 1
C  -2.77390900  0.70745700 -0.70262700
C  -1.62541500  0.75959400  0.26481100
N  -1.40436600  1.73049600  1.16067700
O  -1.36999700 -0.21701000  1.07502100
C   1.07193000 -0.32497500  0.66180100
C   0.67501400 -0.14754700 -0.65335200
O  -0.11804500  0.73969000 -1.09850900
H  -3.67673100  0.41939500 -0.15252600
H  -2.91176900  1.69942500 -1.14671700
H  -2.57768400  0.00591900 -1.51252600
H  -2.23797100  2.31703800  1.28742300
H   0.67108300  0.23737000  1.49357000
H   1.85916500 -1.04863900  0.84216000
H   1.08330300 -0.87323900 -1.38107500

