%chk=ts_freq.chk
%nprocshared=4
#P Opt=(TS,CalcAll,NoEigenTest,NoMicro,MaxCycles=150) Freq External='../../../../../production/external/horm.sh'

External--CalcAll initial TS guess: rxn1666

0 1
N   1.78853050 -0.24195740 -0.01491789
C   0.76531480  0.05027265  0.78201060
C  -0.21064470  1.08041180  0.49205650
C  -1.16961980  0.37677530 -0.18416746
C  -0.75360495 -1.01988340 -0.17227307
O   0.09682732 -1.13906960  0.93972270
H   0.75709945 -0.79379660 -0.83770365
H   2.18766210  0.60597426 -0.42445815
H  -0.05457677  2.15459870  0.51688890
H  -1.97694730  0.77979760 -0.77377590
H  -1.43004080 -1.85312330 -0.32338265

