%chk=ts_freq.chk
%nprocshared=4
#P Opt=(TS,CalcAll,NoEigenTest,NoMicro,MaxCycles=150) Freq External='../../../../../production/external/horm.sh'

External--CalcAll initial TS guess: rxn3295

0 1
C  -1.42661300  0.51413800 -1.70418400
C  -0.26847600  0.78322300 -0.79705200
O   0.14880000  2.02461400 -0.73473800
C  -0.89279800 -0.35061600  1.53195500
C   0.14284500 -0.51100000  0.65693900
O   0.15656600 -1.65910400 -0.10978400
H  -1.92741400  1.40800800 -2.11567000
H  -2.16690100 -0.09389700 -1.17457000
H  -1.05505500 -0.09774900 -2.53394300
H  -0.45203400  2.65235100 -1.18862800
H  -0.79970400  0.30834200  2.38643900
H  -1.83903300 -0.85155600  1.35157700
H   1.12224200 -0.10493800  0.91508500
H   0.72442500 -1.46613100 -0.86928300

