%chk=ts_freq.chk
%nprocshared=4
#P Opt=(TS,CalcAll,NoEigenTest,NoMicro,MaxCycles=150) Freq External='../../../../../production/external/horm.sh'

External--CalcAll initial TS guess: rxn487

0 1
O  -0.18936300  1.34278800  0.24773800
C  -0.31327300  0.08765000  0.08388600
N   0.83026200 -0.53756100  0.35487000
N   0.72020400 -1.83377500  0.00219800
N  -0.46392800 -2.04923800 -0.40825100
N  -1.14922800 -0.85140000 -0.36725900
H   1.07302500  0.74038500  0.48106900
H  -2.10788600 -0.80285200 -0.67258400

