%chk=ts_freq.chk
%nprocshared=4
#P wB97X/6-31G(d) opt(ts,calcall,noeigentest,nomicro,maxcycles=150) freq

GSM eqV2 pure Gaussian calcall TS opt+freq: rxn780

0 1
C  -1.36765200  0.66443800  0.49101300
C   0.10060100  0.94565800  0.52002400
C   0.75255700  2.28804300  0.46961400
O   1.95546500  2.34698400 -0.27865700
C   2.24628500  1.22948700  0.50801400
C   1.20271400  0.16197000  0.48961000
H  -1.92875700  1.55299800  0.18193300
H  -1.74404300  0.35356400  1.47214700
H  -1.59595000 -0.13797700 -0.22085500
H   0.26930800  3.26079400  0.53237200
H   3.32479600  1.07663000  0.57033000
H   1.35050700 -0.90584400  0.39183200

