%chk=ts_freq.chk
%nprocshared=4
#P Opt=(TS,CalcAll,NoEigenTest,NoMicro,MaxCycles=150) Freq External='../../../../../production/external/horm.sh'

External--CalcAll initial TS guess: rxn7018

0 1
C  -1.95579770 -0.00553005 -0.10343515
C  -0.87855864 -0.67054300  0.45668337
C   1.07342660  0.07015777 -0.27562553
C   2.16043100 -0.14342860  0.65105780
O   1.91198550 -0.97777060 -0.50358504
C   0.54008687  1.03155860 -1.06181610
N  -0.41451420  1.60262860 -1.51323640
H  -1.30917940  1.03336320 -0.97594390
H  -2.51188160  0.71981980  0.49053368
H  -2.51668570 -0.47269502 -0.91188260
H  -0.57605207 -0.44177420  1.47339150
H  -0.58232176 -1.64939990  0.08977970
H   3.07262100  0.49694636  0.56675030
H   1.98644000 -0.59333280  1.61732840

