%chk=ts_freq.chk
%nprocshared=4
#P wB97X/6-31G(d) opt(ts,calcall,noeigentest,nomicro,maxcycles=150) freq

GSM eqV2 pure Gaussian calcall TS opt+freq: rxn1398

0 1
O  -1.45947000 -0.07612300 -0.11267100
C   0.01097900 -0.12815500 -0.00230200
C   1.13176000  0.60231700  0.30802100
C   2.10728900 -0.36471100 -0.03197200
N   1.58518600 -1.51342700 -0.49905500
N   0.25667100 -1.33067900 -0.46352100
H  -1.87186300 -0.04233200  0.77046000
H   1.25216100  1.60118900  0.69597400
H   3.18140000 -0.24263100  0.05740100
H  -1.36498500 -1.10259500 -0.50093300

