%chk=ts_freq.chk
%nprocshared=4
#P Opt=(TS,CalcAll,NoEigenTest,NoMicro,MaxCycles=150) Freq External='../../../../../production/external/horm.sh'

External--CalcAll initial TS guess: rxn2877

0 1
C  -1.11417590  0.36758536  0.55442345
C  -0.53990245 -0.84884940 -0.18617090
O  -0.65792125 -0.07703108 -1.42143640
C  -0.53897184  1.07941060 -0.67585980
C   1.40744940  0.43082650 -0.07523636
C   0.95122266 -0.80115944  0.10556269
H  -2.20118400  0.40227693  0.46827534
H  -0.78299820  0.59083560  1.56843160
H  -1.03465750 -1.82594950 -0.21869268
H   0.61804634  1.46003020 -0.72619930
H   2.37899600  0.87078140  0.13933349
H   1.51409690 -1.64875700  0.46756896

