%chk=ts_freq.chk
%nprocshared=4
#P wB97X/6-31G(d) opt(ts,calcall,noeigentest,nomicro,maxcycles=150) freq

GSM eqV2 pure Gaussian calcall TS opt+freq: rxn575

0 1
O  -0.25768600  1.53236100  0.08151000
C  -1.00301300 -0.35470600 -0.28129200
C  -0.24069200 -0.87407300 -1.33172000
C   1.53924600 -0.28888700 -1.02309000
O   1.66354600  0.93725900 -1.34443100
H  -0.10134700  1.77260400  1.00541700
H  -1.94960700  0.15256300 -0.43969000
H  -0.83041900 -0.74754900  0.71636400
H  -0.51331200 -0.50483000 -2.31991900
H   0.01132100 -1.93328300 -1.30327400
H   1.56393600 -0.55032100  0.05516200
H   2.06002400 -1.04408000 -1.63468700
H   0.63982300  1.52672200 -0.44724000

