%chk=ts_freq.chk
%nprocshared=4
#P wB97X/6-31G(d) opt(ts,calcall,noeigentest,nomicro,maxcycles=150) freq

ReactOT exact pure Gaussian calcall TS opt+freq: rxn39

0 1
C  -2.11746570 -0.28607407 -0.50978630
N  -0.77990294 -0.54250216 -0.02569241
C   0.19227270  0.30306366 -0.04618447
N   1.27203770 -0.31839450  0.47586548
C   2.48428420  0.28859590  0.61070967
O   3.47619400 -0.20793000  1.06543660
H  -2.83494000 -0.44104280  0.30084214
H  -2.20984890  0.75335140 -0.89154696
H  -2.36128380 -0.99263495 -1.30764250
H   0.16990381  1.33469460 -0.41320700
H   0.23703699 -1.23292390  0.50011724
H   2.47171190  1.34179690  0.24108852

