%chk=ts_freq.chk
%nprocshared=4
#P wB97X/6-31G(d) opt(ts,calcfc,noeigentest,nomicro,maxcycles=150) freq

GSM eqV2 pure Gaussian calcfc TS opt+freq: rxn2978

0 1
C  -1.19488200 -1.06303600 -0.16004600
C  -0.06475100 -0.38692000  0.56098000
C  -0.56610500  1.71602500 -0.06669200
C   1.24732600 -0.49392500 -0.16480500
H  -1.14143700 -1.05343400 -1.26289100
H  -1.14795900 -2.11530000  0.15573000
H  -2.17421200 -0.69134700  0.15640900
H  -0.36307700  0.88360100  0.80986000
H   0.15327100  2.50403100  0.17292200
H  -1.59396300  2.03371000  0.12216100
H  -0.44751900  1.39065800 -1.09911700
H   1.68622600 -1.44546300  0.16991500
H   1.95211800  0.28828800  0.13292400
H   1.19192000 -0.53250000 -1.26652700

