%chk=ts_freq.chk
%mem=6GB
%nprocshared=4
#P Opt=(TS,CalcAll,NoEigenTest,NoMicro,MaxCycles=150) Freq External='../../../../../production/external/horm.sh'

External--CalcAll initial TS guess: rxn8228

0 1
C   2.10909410 -0.13718227 -0.43666294
C   0.67752420  0.09449325 -0.02652866
C  -0.12092090 -0.96360860  0.48698023
C  -1.56314490 -0.70322400  0.36136380
C  -1.89140450  0.59613190  0.00559593
O  -1.09291890  1.59468770  0.54431635
C  -0.01015421  1.24014400 -0.30961555
H   2.43546130  0.64069325 -1.12465430
H   2.21730880 -1.10708360 -0.93905690
H   2.77783700 -0.13530771  0.42335322
H   0.23214728 -1.94016300  0.76645220
H  -2.25587130 -1.52126610  0.20559534
H  -0.99826440 -0.64209620  1.47187850
H  -2.80698970  0.94554140 -0.45680320
H   0.29029580  2.03824000 -0.97221400

