%chk=ts_freq.chk
%nprocshared=4
#P wB97X/6-31G(d) opt(ts,calcfc,noeigentest,nomicro,maxcycles=150) freq

GSM eqV2 pure Gaussian calcfc TS opt+freq: rxn6805

0 1
C  -1.69507200  0.74693500 -0.16555600
C  -0.36987400  0.66150100  0.56146900
C   0.53211100 -0.48932200  0.07607100
C   1.84076600 -0.44031700  0.79951500
C   2.27667900  0.86750100  1.22448500
C   1.49223300  2.02475800  0.97692300
O   0.30824700  1.91090900  0.33920800
H  -2.24294600 -0.19402000 -0.04409600
H  -1.53374200  0.92083500 -1.23492100
H  -2.31140300  1.55573800  0.23682300
H  -0.54930400  0.55119000  1.64147200
H   0.60626900 -0.37220300 -1.01954400
H   0.03614700 -1.45472600  0.24687900
H   2.31865100 -1.32288800  1.20673200
H   3.15282800  0.98594000  1.86154800
H   1.80928100  3.03627800  1.19776800
H   2.69914700  0.93090600  0.15653400

