%chk=ts_freq.chk
%nprocshared=4
#P wB97X/6-31G(d) opt(ts,calcall,noeigentest,nomicro,maxcycles=150) freq

GSM eqV2 pure Gaussian calcall TS opt+freq: rxn7424

0 1
C   1.42502300  0.32055600  1.01106700
O   1.16018000 -1.09022000  1.08884700
C   0.89203200 -1.49926300 -0.22106400
C  -0.32607600 -0.86031000 -0.91294000
O  -0.43370300  0.48437000 -0.47891400
C   1.01195800  0.68772900 -0.40975200
C   1.45282900 -0.54891500 -1.25007800
H   2.48310800  0.52015000  1.22774900
H   0.78720800  0.84229200  1.72322700
H   1.03439300 -2.56584200 -0.37745100
H  -1.22530200 -1.45541900 -0.78799200
H   1.27905700  1.69357500 -0.72159000
H   0.40411500 -0.73567400 -2.03902700

