%chk=ts_freq.chk
%mem=6GB
%nprocshared=4
#P opt(ts,calcall,noeigentest,nomicro,maxcycles=150) freq External='../../../../../production/external/horm.sh'

ReactOT exact C eqV2-EFH calcall TS opt+freq: rxn8180

0 1
C   2.78919340  0.09003884  0.22875302
C   1.41380860  0.20313534 -0.39548570
C   0.26798850  0.58807755  0.35565156
C  -1.01512180  1.06367670 -0.30164700
C  -2.15686660  0.10951134  0.06883484
C  -1.58190730 -1.29887910 -0.04992423
O  -0.32645276 -1.24607770  0.58003540
H   3.34470580  1.03504160  0.17815174
H   2.73254940 -0.19501232  1.28369000
H   3.39957830 -0.67129630 -0.26115397
H   1.40223030  0.43175837 -1.45362640
H   0.67433125 -0.95315963 -0.17022882
H   0.35655734  0.76196104  1.42200760
H  -1.21989500  2.09092700  0.01309632
H  -0.86614215  1.07541020 -1.39111650
H  -3.05330440  0.26800907 -0.54830890
H  -2.44409130  0.29144520  1.11881450
H  -2.22727700 -2.03839300  0.42858243
H  -1.48988370 -1.60617420 -1.10612570

