%chk=ts_freq.chk
%nprocshared=4
#P wB97X/6-31G(d) opt(ts,calcfc,noeigentest,nomicro,maxcycles=150) freq

ReactOT exact pure Gaussian calcfc TS opt+freq: rxn9680

0 1
C   1.55022820  1.21997080 -0.00477464
C   0.67442036 -0.02636206  0.15070190
C   1.43144990 -1.26488570 -0.32761127
C  -0.62482965  0.14531828 -0.60220240
C  -1.78238020 -0.79132843 -0.33613020
C  -2.20303680  0.47829133  0.34871343
O  -1.87957810  0.34611353  1.68894530
H   1.04168390  2.11390610  0.37839687
H   2.50027250  1.10873150  0.52666914
H   1.77986600  1.40070320 -1.06071380
H   0.41354722 -0.16926289  1.20700990
H   2.36811730 -1.37567460  0.22418870
H   1.67319680 -1.18682780 -1.39045690
H   0.83945910 -2.17624620 -0.16707850
H  -0.52937800  0.45354960 -1.63768570
H  -2.37920900 -1.08710810 -1.19807360
H  -1.56135790 -1.61078100  0.34619954
H  -1.29195920  1.21297220 -0.24126118
H  -2.02051230  1.20892040  2.09516330

