%chk=ts_freq.chk
%nprocshared=4
#P wB97X/6-31G(d) opt(ts,calcfc,noeigentest,nomicro,maxcycles=150) freq

ReactOT exact pure Gaussian calcfc TS opt+freq: rxn2478

0 1
C  -2.79441240 -0.01144950  0.19438271
C  -1.42169030  0.08382873  0.22182614
C  -0.19961947 -0.36261454  0.31360450
C   0.97708327 -0.13862371 -0.50961670
C   2.15745350  0.36257592  0.26666102
N   2.15387000 -0.98084380 -0.25426596
H  -1.78192910  0.93211377 -0.50848967
H  -3.41639200  0.84658897  0.41828573
H  -3.30507920 -0.90114695 -0.17999454
H   0.89734870  0.18562128 -1.55626950
H   2.00308350  0.54460800  1.33165820
H   2.81848450  1.06960210 -0.23056030
H   1.91179900 -1.63026020  0.49277842

