%chk=ts_freq.chk
%nprocshared=4
#P wB97X/6-31G(d) opt(ts,calcfc,noeigentest,nomicro,maxcycles=150) freq

ReactOT exact pure Gaussian calcfc TS opt+freq: rxn1058

0 1
C   1.31499030 -0.50208920 -0.33741724
C  -0.57309973 -0.17014347  0.80463296
C  -0.90435815  1.12695740  0.28622153
O  -0.62620020  1.00524520 -1.00490150
C  -0.32759523 -0.75819040 -0.51974340
O  -0.70649993 -1.66089870 -1.23080870
H   1.65968190  0.42588220  0.12398745
H   1.69510080 -1.38511360  0.16793455
H   1.59525010 -0.51154740 -1.38633100
H  -0.45178650 -0.55791550  1.80929160
H  -0.67445490  2.07606550  0.80423800
H  -2.00102850  0.91174780  0.48289576

