%chk=ts_freq.chk
%nprocshared=4
#P Opt=(TS,CalcAll,NoEigenTest,NoMicro,MaxCycles=150) Freq External='../../../../../production/external/horm.sh'

External--CalcAll initial TS guess: rxn1451

0 1
C  -1.77220310 -0.10778812  0.93109330
C  -1.02669480  0.38289133 -0.29376447
C  -0.09580609  1.56971420 -0.16191205
C   0.43549740  0.20882325 -0.42897080
C   1.33593960 -0.61298770  0.29070443
O   2.18898250 -1.16129370 -1.24704400
H  -2.01511600 -1.17396570  0.85874236
H  -1.15261230  0.02940079  1.83030560
H  -2.70256880  0.44197324  1.08690770
H  -1.60801030  0.33434424 -1.21290080
H  -0.05531159  2.30748770 -0.96350896
H   0.03114894  1.99798570  0.82816154
H   1.31228700 -0.40268907 -1.46510490
H   2.23770520 -0.20626518  0.75664960
H   1.00206070 -1.56554650  0.69344700
H   1.88470150 -2.04208450 -1.50280540

