%chk=ts_freq.chk
%nprocshared=4
#P Opt=(TS,CalcAll,NoEigenTest,NoMicro,MaxCycles=150) Freq External='../../../../../production/external/horm.sh'

External--CalcAll initial TS guess: rxn8259

0 1
C   2.18888400  0.49077300 -0.55118000
C   1.17949300 -0.11541100  0.93659800
O   2.04701900 -0.22906500  1.91647400
C  -0.10224900  0.76637400  1.03915600
C  -0.88877100 -0.48090800  0.64277700
O  -0.46132200 -0.85714200 -0.65557700
C   0.32279000 -1.29395700  0.45003000
H   1.33901000  0.46973700 -1.23376200
H   2.53614500  1.50530100 -0.34930800
H   2.97642500 -0.11853400 -1.01868100
H   2.45788500 -0.11870400  0.61429800
H  -0.20948100  1.04413600  2.09134300
H  -0.22065800  1.63757000  0.39156200
H  -1.87659100 -0.78914300  0.96970700
H   0.50319700 -2.35790000  0.56102900

