%chk=ts_freq.chk
%nprocshared=4
#P wB97X/6-31G(d) opt(ts,calcfc,noeigentest,nomicro,maxcycles=150) freq

GSM eqV2 pure Gaussian calcfc TS opt+freq: rxn3790

0 1
C  -0.69016600  0.09769200  2.09609600
C  -1.85021100  0.06264400 -0.87236700
C  -0.68836200 -0.14955100 -0.25249500
C   0.09310100 -1.33777500  0.36740000
C   1.08472500 -0.26853700  0.96699100
C   0.56128900  0.72210800 -0.09591500
H  -0.86602300 -0.63092200  2.89332700
H  -1.34481600  0.97647500  2.06932100
H  -1.99655000  1.02139300 -1.35822100
H  -2.58310800 -0.71109000 -1.04694000
H   0.59046800 -1.92194500 -0.42232600
H  -0.41791800 -1.98073800  1.08860800
H   2.05284600 -0.76588300  0.82507100
H   0.93624600  0.34448900  2.01740500
H   1.16503800  0.77556800 -1.02860900
H   0.40298800  1.74645600  0.25560900

