%chk=ts_freq.chk
%nprocshared=4
#P wB97X/6-31G(d) opt(ts,calcfc,noeigentest,nomicro,maxcycles=150) freq

GSM eqV2 pure Gaussian calcfc TS opt+freq: rxn8395

0 1
C  -1.85949300 -0.21639200 -0.28308500
C  -0.58508300  0.51834000  0.04062900
O  -0.32592900  0.54758600  1.43636400
C   0.83958000  0.15228000  0.79274500
C   1.21365700 -1.23909400  0.50609100
C   0.68766800 -0.75286500 -0.83145800
O   1.70731300 -0.13556500 -1.52062200
H  -1.82784100 -1.22835300  0.12670100
H  -2.70564300  0.31934300  0.16774200
H  -1.99053300 -0.28459500 -1.36430100
H  -0.48284600  1.49812300 -0.43459400
H   1.60943100  0.91421800  0.68827000
H   2.28710500 -1.41727900  0.54263000
H   0.61095000 -2.01138700  0.98165900
H   1.36882400  0.03715900 -2.40666900

