%chk=ts_freq.chk
%nprocshared=4
#P wB97X/6-31G(d) opt(ts,calcfc,noeigentest,nomicro,maxcycles=150) freq

ReactOT exact pure Gaussian calcfc TS opt+freq: rxn6838

0 1
C   2.90789800 -0.34213325  0.09661334
N   1.49702840 -0.38986793 -0.22716159
C   0.84474430  0.69797480 -0.20559816
C  -0.59651070  0.75700990 -0.31106114
C  -1.39891950 -0.41345817 -0.00264979
C  -2.87311030 -0.28940594  0.21797020
N  -0.75367060 -1.47982170 -0.14428700
H   3.31207920  0.68057424  0.13939340
H   3.44924020 -0.93855613 -0.64253880
H   3.05858100 -0.81702820  1.09627490
H   1.32543780  1.68123800 -0.05859635
H  -1.05901830  1.61059840 -0.76843710
H  -3.32023020  0.31472948 -0.57727766
H  -3.06066850  0.20607814  1.16649220
H  -3.33288050 -1.27793170  0.22086352

