%chk=ts_freq.chk
%nprocshared=4
#P wB97X/6-31G(d) opt(ts,calcall,noeigentest,nomicro,maxcycles=150) freq

GSM eqV2 pure Gaussian calcall TS opt+freq: rxn7130

0 1
O  -0.56271400 -0.18005600  1.10814900
C  -0.48068300 -1.52675900  0.77480800
C  -0.95610300 -1.79756000 -0.61253200
C   0.76681800 -2.11833100  0.14389800
O   1.56215900 -1.08913300 -0.39885800
C   2.06623600 -0.13852700  0.39697800
O   2.06764300 -0.13812900  1.60354000
H   0.03279300 -0.02518200  1.85425400
H  -0.87766500 -2.18980300  1.54749900
H  -1.82127100 -2.45353800 -0.68121800
H  -0.91976300 -0.92322100 -1.25331100
H   0.02843600 -2.59137700 -0.95559300
H   2.54482400  0.62228300 -0.22752800

