%chk=ts_freq.chk
%nprocshared=4
#P wB97X/6-31G(d) opt(ts,calcall,noeigentest,nomicro,maxcycles=150) freq

ReactOT exact pure Gaussian calcall TS opt+freq: rxn6170

0 1
O   2.13486740  0.88254590 -0.16062562
C   0.91736835  0.27862936 -0.37162626
C   0.62546200 -1.13498590  0.07828385
C  -0.87654376 -0.93767715 -0.22641383
C  -1.26443110  0.17711829  0.77314350
C  -0.37831995  1.04527720 -0.10523566
C  -0.78348136  0.21164759 -1.30147490
H   2.02025080  1.73005100  0.27369374
H   0.88573337 -1.34644870  1.12191580
H   1.11271300 -1.86327710 -0.58154297
H  -1.51323430 -1.80863600 -0.38649783
H  -2.31430080  0.46927170  0.68403363
H  -1.01772300  0.02805543  1.82958190
H  -0.32740754  2.13720440 -0.08618301
H   0.77904670  0.13122365 -1.54105220

