%chk=ts_freq.chk
%nprocshared=4
#P wB97X/6-31G(d) opt(ts,calcfc,noeigentest,nomicro,maxcycles=150) freq

GSM eqV2 pure Gaussian calcfc TS opt+freq: rxn3387

0 1
C   1.27951700  0.30017800  1.03562900
C   0.05467100 -0.45550900 -1.39471500
C  -0.13663300 -1.37041200 -0.52874600
N  -1.07580500 -0.11440600  0.17525800
C  -1.48764200  0.79289300 -0.06276700
O  -0.98772100  0.76644300 -1.34895400
H   2.11533400  0.89260300  0.66278600
H   0.68754300  0.78700500  1.81619800
H   1.67610700 -0.62309400  1.50606600
H   0.07676800 -1.09467900 -2.30406300
H  -0.65914500 -2.34934000 -0.70772200
H   0.73839500 -1.67749900  0.06058200
H  -2.06529400  1.61050400  0.39727600

