%chk=ts_freq.chk
%nprocshared=4
#P wB97X/6-31G(d) opt(ts,calcfc,noeigentest,nomicro,maxcycles=150) freq

ReactOT exact pure Gaussian calcfc TS opt+freq: rxn348

0 1
C  -2.03508850  0.59023666  0.80518950
C  -1.02567610 -0.42880958 -1.18946670
N   0.12239020 -0.71609250 -0.60173446
C   0.28629684 -0.86945480  0.77041405
C   1.05928920  0.18289357  0.04991401
C   2.49990500  0.13033426 -0.39129117
H  -2.95131970  0.04206234  0.57510555
H  -2.12480780  0.85568976  1.87657900
H  -2.03959510  1.54358150  0.26632002
H  -1.77342830 -1.21350100 -1.18531970
H  -1.05794230  0.35529710 -1.94032080
H  -0.95022607 -0.20204489  1.03662990
H   0.71204190 -1.77616850  1.20791850
H   0.65775186  1.18798690  0.24222979
H   3.15452960  0.46079117  0.41435915
H   2.69093040  0.75370264 -1.26874640
H   2.77494930 -0.89650464 -0.66778034

