%chk=ts_freq.chk
%nprocshared=4
#P Opt=(TS,CalcAll,NoEigenTest,NoMicro,MaxCycles=150) Freq External='../../../../../production/external/horm.sh'

External--CalcAll initial TS guess: rxn7424

0 1
C   0.57329970  0.61453575  1.25924050
O   0.49725586 -0.80625940  1.17329470
C   0.36237213 -1.10381720 -0.19242059
C  -0.95769770 -0.65793025 -0.79495984
O  -1.30923890  0.54778380 -0.15461099
C   0.04489122  1.05311940 -0.10130829
C   0.74306970  0.05848426 -1.08883460
H   1.61160470  0.93561214  1.43237790
H  -0.08224751  0.96183985  2.06952290
H   0.70829470 -2.11520220 -0.41840690
H  -1.77878890 -1.33145490 -1.01605180
H   0.09209964  2.12567330 -0.31649613
H  -0.50491464 -0.28238434 -1.85134690

