%chk=ts_freq.chk
%nprocshared=4
#P wB97X/6-31G(d) opt(ts,calcall,noeigentest,nomicro,maxcycles=150) freq

ReactOT exact pure Gaussian calcall TS opt+freq: rxn593

0 1
O  -1.86945030  0.77214310  0.67737970
C  -1.18057670  0.49028835 -0.27175900
C  -0.02515608 -0.50319460 -0.18244763
C   1.29746210  0.43507350 -0.73065066
C   1.53009160  0.12974402  0.47868547
H  -1.30799650  0.96152460 -1.25834000
H  -0.06296428 -1.24276700 -0.98248804
H  -0.15529068 -1.04581420  0.75585866
H   1.77388080  0.00300194  1.51376150

