%chk=ts_freq.chk
%nprocshared=4
#P wB97X/6-31G(d) opt(ts,calcall,noeigentest,nomicro,maxcycles=150) freq

GSM eqV2 pure Gaussian calcall TS opt+freq: rxn4544

0 1
O   0.17055600 -1.26560500  1.52017400
C   0.75814200 -0.51481500 -0.22161500
C  -0.61579200 -0.90890800 -0.69754600
C  -1.39192600  0.15352800  0.06967200
C  -0.50169100  1.22970600  0.24204400
C   0.81386000  0.85473600  0.08400500
H   0.71294700 -0.67084400  2.08817500
H   1.63622300 -1.10249300 -0.47563700
H  -0.73907000 -0.91545400 -1.80969300
H  -0.83986300 -1.89930900 -0.33900300
H  -2.46046500  0.31542300 -0.06805300
H  -0.90798000 -0.57224300  1.20736600
H  -0.84160100  2.24392700  0.59658400
H   1.69996300  1.43020000  0.25359500

