%chk=ts_freq.chk
%nprocshared=4
#P Opt=(TS,CalcAll,NoEigenTest,NoMicro,MaxCycles=150) Freq External='../../../../../production/external/horm.sh'

External--CalcAll initial TS guess: rxn2445

0 1
C   1.24272370  0.36276000 -0.66325766
C   0.58792700  0.20328659  1.05398270
C  -0.79044485  0.82397383  0.95244350
O  -1.48058870  0.34960428 -0.20604080
C  -0.92492163 -0.91806390 -0.49270624
C   0.52676760 -0.81100920 -0.02873527
H   0.68265396  0.86653984 -1.44264080
H   2.30419540  0.20316842 -0.85452120
H   1.36550330  1.10330760  0.27192596
H  -0.83219590  1.91848950  0.95327820
H  -1.29694510  0.45832303  1.87565730
H  -1.03966310 -1.11623260 -1.56418540
H  -1.44203910 -1.70552610  0.08621886
H   1.09702740 -1.73862160  0.05858087

