16

C -1.7722031 -0.10778812 0.9310933
C -1.0266948 0.38289133 -0.29376447
C -0.09580609 1.5697142 -0.16191205
C 0.4354974 0.20882325 -0.4289708
C 1.3359396 -0.6129877 0.29070443
O 2.1889825 -1.1612937 -1.247044
H -2.015116 -1.1739657 0.85874236
H -1.1526123 0.029400792 1.8303056
H -2.7025688 0.44197324 1.0869077
H -1.6080103 0.33434424 -1.2129008
H -0.055311594 2.3074877 -0.96350896
H 0.031148937 1.9979857 0.82816154
H 1.312287 -0.40268907 -1.4651049
H 2.2377052 -0.20626518 0.7566496
H 1.0020607 -1.5655465 0.693447
H 1.8847015 -2.0420845 -1.5028054
