17

O 2.5749009 0.30847025 0.17289442
C 1.824485 -0.60320204 -0.27442494
C -0.100666344 -0.6226265 0.654965
C -0.4327439 0.6985513 0.76844484
C -1.3809026 1.0262663 -0.36029938
O -1.3302114 -0.06759778 -1.2363209
C -0.93559027 -1.1950623 -0.500786
H 1.6607795 1.4310921 0.33636895
H 1.355837 -0.52270746 -1.2622135
H 1.9643759 -1.6271449 0.10161407
H 0.15228558 -1.2210792 1.5238246
H -0.45714498 1.2339804 1.7158527
H 0.8603037 1.6806293 0.4412725
H -1.1589524 1.9497126 -0.9006238
H -2.3890247 1.1319807 0.09311253
H -0.3792237 -1.878606 -1.1519446
H -1.8285074 -1.7226573 -0.121736415
