16

C 1.8686877 0.028942356 -0.59960765
C 0.84180784 0.15864852 0.5244525
C -0.37983775 1.0496327 0.27938342
C -1.2852671 -0.014870924 0.5807899
O -1.8576564 -0.19722739 -1.1701022
C -0.15584922 -1.0232327 0.6877739
H 2.3950639 0.98291403 -0.7539939
H 1.3634572 -0.22916368 -1.5402673
H 2.603274 -0.7460975 -0.37251294
H 1.3523788 0.37121162 1.4691111
H -1.0101271 0.65403533 -0.98836666
H -0.50462383 2.106889 0.51480347
H -2.2417638 -0.053580202 1.097733
H -2.729039 0.22339422 -1.2818031
H -0.11435463 -1.5393701 1.655308
H -0.14615074 -1.7721252 -0.10270135
