15

C -1.6665062 0.34369606 0.9010937
C -1.0654732 -0.5829452 -1.2725812
N 0.26884446 -0.26693535 -1.0942948
C 0.74822307 -0.28224748 0.16882105
O -0.092388205 -0.64211524 1.0442836
C 2.1202004 0.2732759 0.45006704
H -2.5924273 -0.16500773 0.64002144
H -1.5674634 1.3147707 0.42393294
H -1.5361373 0.42363435 1.9815086
H -1.3576382 -1.5179046 -0.8177757
H -1.4379132 -0.36147872 -2.2690904
H 0.7942858 0.22316635 -1.7998456
H 2.6592038 0.51716137 -0.47375947
H 2.6834989 -0.45179194 1.043753
H 2.041691 1.1747216 1.0738657
