16

C 2.2256405 -0.08793591 -0.32117194
C 1.023222 0.51533043 0.40586883
C -0.18416966 0.23187506 -0.40639952
C -0.9862612 -0.91317785 -0.24936157
C -2.1885977 0.20126763 0.44570327
O -1.4951605 1.1004786 1.0777016
H 2.1096563 -1.1565585 -0.48191527
H 2.3891299 0.41466168 -1.2957611
H 3.1300328 0.09093848 0.2779598
H 0.88634914 0.07781661 1.3932483
H 1.1496873 1.5969232 0.52243096
H -0.37713766 0.8875502 -1.2534394
H -0.62520516 -1.6477752 0.4813582
H -1.4611315 -1.3444508 -1.1257459
H -2.909789 -0.43423143 1.030715
H -2.6862648 0.46728784 -0.5011913
