15

C -0.6414273 0.8648873 -0.81563383
C -0.582885 0.2168516 0.52453965
O -1.6344889 0.50141805 1.3416357
C -0.1830664 -1.2225223 0.4556255
O 0.8900458 -1.3394232 -0.4860532
C 1.5010742 -0.2052127 -0.6979802
O 1.942666 0.5435888 0.28597102
H -1.3687718 0.33313733 -1.4554158
H 0.2522181 1.0590819 -1.4423041
H -0.9495678 1.910485 -0.6575531
H 0.9718695 0.7076431 0.7792519
H -1.3807893 0.29143056 2.2658846
H -1.0100852 -1.8536427 0.09031853
H 0.110908255 -1.6040539 1.4428614
H 2.0823 -0.20366888 -1.6311479
