16

C -0.52969736 -1.0400625 0.31656367
C -1.2384803 0.1363432 -0.27744827
C -0.9788165 1.3965572 0.22868395
O 0.7197971 1.1833647 -0.9225078
C 1.5738025 0.29542994 -0.2922313
C 0.9298601 -1.0920955 -0.13670915
H -1.0574855 -1.9701697 0.08946353
H -0.5423884 -0.9418579 1.4138709
H -1.8137339 0.031352744 -1.1788896
H -2.1158273 0.733927 0.6293226
H -0.3889882 1.5117815 1.1294274
H -1.3748289 2.2800105 -0.25950685
H 1.8347125 0.64473534 0.7406892
H 2.5379195 0.1580021 -0.81817305
H 1.5240198 -1.7512599 0.5022949
H 0.92013514 -1.5760589 -1.1648501
