15

C -1.1318859 0.10107951 0.99704146
C -0.16485928 -0.2779174 -0.12425502
C -0.8525563 -0.31174806 -1.4920821
N 0.96815884 0.63924474 -0.16204092
C 2.088013 0.45288754 0.5302534
O 2.1535077 -0.6209928 1.3051329
H -1.9614093 -0.6226442 1.0560099
H -1.5721427 1.0926007 0.81752425
H -0.61290723 0.097262956 1.9592865
H 0.25447908 -1.2637188 0.09900664
H -0.15730435 -0.59670895 -2.2784755
H -1.2711767 0.670472 -1.748119
H -1.6867881 -1.0260018 -1.4841319
H 0.8771145 1.4962044 -0.68559426
H 3.069757 0.1699802 1.2104437
