16

C -1.0855298 -1.1855075 -0.6209103
C -0.17260164 -0.09212407 -0.49886268
C -1.1571205 1.5667278 0.3504497
C 0.9421993 -0.14516503 0.5179789
C 2.1388395 -0.919527 -0.020834977
O 2.2493021 -1.3662856 -1.1356602
H -1.3954668 0.14767581 -0.14020365
H -1.1433723 -1.9084888 0.18061405
H -1.5427804 -1.4168347 -1.5756435
H 0.06397264 0.44883832 -1.4079322
H -0.48737493 2.3477159 -0.026298795
H -2.1850467 1.7955114 0.023514092
H -1.1234946 1.506056 1.4326605
H 1.3003991 0.85760134 0.77023345
H 0.6219478 -0.6403823 1.4362594
H 2.9761271 -0.9958114 0.7146364
