15

C -1.4399211 0.28032008 1.4408517
C -0.26184687 -0.21944329 0.65907234
C -0.045707446 -0.5990559 -1.8056246
N 0.87051016 0.5365669 0.66541916
C 1.8420635 0.23761658 -0.19501704
O 1.6339315 -0.7761167 -0.9327666
H -2.3594177 -0.16223828 1.0215114
H -1.5472574 1.3679004 1.3902082
H -1.408124 -0.02407454 2.4924562
H -0.07696518 -1.2804238 0.61550313
H 0.51046443 -0.9353444 -2.6752865
H -0.3745262 0.42856956 -1.8976012
H -0.86315334 -1.2676165 -1.5403726
H 0.8850161 1.4390266 1.1232382
H 2.6349335 0.9743133 -0.36159188
