16

C 1.9572554 -0.22904965 0.38842568
C 0.55772704 -0.007270399 -0.15118432
C -0.07604341 1.3696965 -0.11082634
C -0.6550581 0.24344757 0.70483714
C -1.7296755 -0.5927481 0.036163162
C 0.041186832 -0.9517981 -1.1852553
H 2.1521142 0.42797297 1.248601
H 2.709781 -0.008959532 -0.382947
H 2.097996 -1.2665646 0.68334186
H 0.45316598 2.138991 0.46235865
H -0.61994153 1.7348074 -0.9748209
H -0.633584 0.31259793 1.7941647
H -2.2064576 -1.3042722 0.7107026
H -2.5021343 -0.048440218 -0.5149612
H -0.3558573 -0.40789667 -2.0648189
H -1.1904744 -1.410514 -0.64378077
