18

C 1.9494932 -0.4653055 -0.62902665
C 1.0151415 -0.8542609 0.29430386
C -0.7893283 0.2724499 -0.12713984
C -1.7221534 -0.7917037 0.41017804
C -0.54087174 1.4697399 0.75783414
O -0.82600594 0.4752361 -1.3933313
H 2.3086047 -1.167436 -1.3764561
H 2.6568944 0.3298568 -0.3857162
H 1.3164525 0.34132794 -1.8082306
H 1.0736896 -0.4740783 1.3141323
H 0.590018 -1.8525302 0.22383279
H -1.4488258 -1.1273712 1.4142956
H -1.760487 -1.655282 -0.25131786
H -2.7346587 -0.35889003 0.4884346
H -0.3783935 1.1939925 1.8055823
H -1.4526621 2.0917451 0.7429648
H 0.2824704 2.0758414 0.37070432
H 0.46062192 0.49666834 -1.8510442
