15

C -2.2000859 -0.45456287 0.3585624
C -1.3261538 0.72392577 0.013846559
C 0.11470205 0.28137022 -0.12142476
C 2.6905572 0.1878558 0.049870092
C 2.1950912 -0.9017961 -0.6623837
N 1.4020422 -1.5649793 -1.1549658
H -1.883336 -0.93183935 1.2947594
H -3.2414079 -0.14289968 0.45510915
H -2.1363297 -1.2049273 -0.44118255
H -1.3332375 1.4711895 0.85146964
H -1.6407362 1.2485616 -0.8776458
H 0.49720815 -0.3416408 0.6370899
H 0.63272154 0.62966764 -0.98517364
H 3.0106847 0.029875716 1.0790919
H 3.2182796 0.9701991 -0.49702284
