16

C 1.7175516 -0.11235563 0.48816994
O 0.39605215 -0.11955491 1.0118699
C -0.811843 0.43202418 0.17600977
C -0.4814811 1.7443101 -0.44863555
C -1.0848327 -0.77530324 -0.6368213
C -0.73193765 -1.5009693 0.5916376
H 2.3062763 -0.8682935 1.0217131
H 1.7816355 -0.29328787 -0.5829218
H 2.1543994 0.87919503 0.6940022
H -1.3651279 2.078691 -1.0465412
H -0.2943244 2.5156753 0.31720203
H 0.37003866 1.7270545 -1.141994
H -2.1139925 -0.863479 -0.9546744
H -0.40097433 -1.0321022 -1.4701917
H 0.064940475 -2.2373009 0.6316141
H -1.5063808 -1.5743035 1.3495615
