16

C -0.95777214 -0.83744264 1.4182768
C -0.6716566 0.3455633 0.50699705
C 0.7944021 0.831731 0.42148432
C 0.8521236 0.6623339 -1.1049896
C 0.34515202 -0.726554 -1.3914069
C -0.90232056 0.044470843 -1.0028703
H -0.80089146 -0.56252927 2.4707978
H -2.002197 -1.1698077 1.311293
H -0.2965734 -1.687038 1.2102026
H -1.3121352 1.1774575 0.8230162
H 0.8971439 1.8714893 0.75108826
H 1.5420475 0.20454249 0.9431737
H 1.5762625 1.1154296 -1.7772629
H 0.7251751 -1.4791896 -0.70199287
H 0.39021358 -1.0354282 -2.4395742
H -0.17897415 1.2449715 -1.438233
