16

C 2.1052287 -0.0029583268 -0.033016413
O 0.9837397 0.0784909 0.8505804
C -0.672685 0.16669203 0.047949713
C -0.7385158 1.5675236 0.08204562
C -0.85718894 -1.0207636 -0.8134022
C -1.4539034 -0.99264956 0.5808475
H 3.0027614 0.20353922 0.5248873
H 2.1512444 -0.9967816 -0.4781189
H 2.019858 0.73799944 -0.8471378
H -0.6325251 2.1013393 -0.85915613
H -1.3507757 2.0484536 0.8459958
H 0.53120226 1.1786946 0.74160814
H -1.5169874 -0.89531195 -1.6756947
H -0.0380421 -1.71546 -0.9895951
H -1.0057154 -1.6258576 1.3372345
H -2.5276952 -0.83295006 0.68497235
