15

C -1.7191185 0.50077796 0.4077565
C -1.0343698 -0.4062612 -0.60076016
C 0.21749319 -1.094041 -0.040784333
N 1.1989115 -0.11301987 0.44968548
C 1.9327021 0.5759551 -0.3636365
O 2.2885642 0.8276098 -1.4722228
H -2.6299996 0.9377978 -0.0008792238
H -1.9679232 -0.026941115 1.3287042
H -1.0656848 1.3402454 0.700401
H -0.7523096 0.15823758 -1.4949136
H -1.7255238 -1.1902837 -0.9292131
H 0.6786884 -1.7482407 -0.7881864
H -0.024521727 -1.7122185 0.82466835
H 1.9792609 0.69148076 1.2281185
H 2.6238308 1.2589017 0.75126225
