16

C -1.3464091 0.47097564 -0.63556916
C -0.4933405 -0.30575705 0.33345422
C -0.47989303 -1.7917235 0.13180447
O 0.6694057 -1.4024076 -0.65527916
C 1.0381136 -0.21086313 0.2331123
C 1.5350441 1.042157 -0.14429525
H -1.240062 1.5443152 -0.4467828
H -2.3912106 0.19200276 -0.492671
H -1.0699477 0.2783441 -1.6862001
H -0.30545107 1.0540751 1.4672904
H -1.2648697 -2.2174776 -0.48813778
H -0.21808675 -2.4259024 0.9824446
H 1.50795 -0.6438018 1.119331
H 1.1479558 1.552589 -1.0179858
H 2.5134182 1.3757994 0.19784594
H 0.39738253 1.4876746 1.1016382
