14

C -0.7170301 -1.0497065 -0.19873454
C 0.08420316 0.072386555 -0.88220394
C -0.47259566 1.2494752 -0.09139645
C -0.76293147 -0.38308734 1.1570692
O 0.5814158 0.49583715 1.150609
C 1.3358778 0.062402327 -5.322465e-05
H -1.7381157 -1.0731299 -0.63153833
H -0.26493114 -2.0455983 -0.32150885
H 0.14259414 0.13873811 -1.9733483
H -1.5418332 1.4305853 -0.043224405
H 0.107289456 2.1789365 -0.11559506
H -0.6646272 -1.0269899 2.0300164
H 1.836621 -0.88874185 0.1698554
H 2.0740628 0.83889264 -0.24994679
