16

C -0.80168283 0.68912697 2.2944143
C -1.5714033 -0.119921625 -1.2608794
C -0.27475342 -0.17070554 -0.8819707
C 0.5736641 -1.1924855 -0.16292356
C 1.4122427 -0.017228805 0.36134118
C 0.80750614 0.87207556 -0.7361148
H -1.1953592 -0.3505395 2.3080266
H -1.5439885 1.160888 1.6176534
H -1.978771 0.773498 -1.7246559
H -2.194614 -1.0087368 -1.2263064
H 1.1450906 -1.7998545 -0.8760255
H 0.08555324 -1.8389679 0.5891053
H 2.5015771 -0.14235397 0.39613354
H 1.0765088 0.33506733 1.3539159
H 1.4464216 0.917345 -1.6209673
H 0.5120084 1.8927934 -0.4307469
