16

C 1.3531526 1.1681837 0.43874875
O 1.3761284 -0.18761584 0.35366473
C 0.49253896 -0.74900067 -0.42605
C 0.22248013 -2.1992877 -0.17101178
C -1.3326151 0.74182516 0.30185917
O -1.5501994 1.6470962 -0.7613581
H 2.0817072 1.5085291 1.1635021
H 1.4544771 1.6237526 -0.57575786
H -0.0723528 0.9988353 0.6474165
H 0.2841936 -0.28395593 -1.371807
H 0.8444105 -2.8440561 -0.7950741
H -0.8276479 -2.4045758 -0.40276346
H 0.40858477 -2.4251697 0.88632864
H -1.9161114 -0.15415072 0.039841153
H -1.7711128 1.1163845 1.2365912
H -1.0476341 2.4432058 -0.5641298
