17

C -2.0350885 0.59023666 0.8051895
C -1.0256761 -0.42880958 -1.1894667
N 0.1223902 -0.7160925 -0.60173446
C 0.28629684 -0.8694548 0.77041405
C 1.0592892 0.18289357 0.04991401
C 2.499905 0.13033426 -0.39129117
H -2.9513197 0.04206234 0.57510555
H -2.1248078 0.85568976 1.876579
H -2.0395951 1.5435815 0.26632002
H -1.7734283 -1.213501 -1.1853197
H -1.0579423 0.3552971 -1.9403208
H -0.95022607 -0.20204489 1.0366299
H 0.7120419 -1.7761685 1.2079185
H 0.65775186 1.1879869 0.24222979
H 3.1545296 0.46079117 0.41435915
H 2.6909304 0.75370264 -1.2687464
H 2.7749493 -0.89650464 -0.66778034
