16

C 2.1426418 0.23519278 -0.94711673
O 0.850394 -0.185006 -1.3753211
C -0.23963703 -0.95919937 0.17764077
C -1.0846608 -0.049865898 1.0205712
C -1.1059456 0.9208151 -0.10865924
O -2.3203719 -0.5168594 1.4576362
H 2.8079977 -0.615122 -0.94323
H 2.523692 0.99607474 -1.6410719
H 2.0793228 0.70232725 0.04448324
H 0.67601526 -1.4616503 0.44220436
H -0.8596148 -1.4842074 -0.55476475
H -0.48925537 0.31545448 1.8850424
H -0.8091263 1.9375261 0.15536153
H -2.0349967 0.8589023 -0.6638965
H 0.071489885 0.50176185 -1.0850466
H -2.2079446 -1.1961443 2.1361673
