16

C 2.1995866 0.19763136 -0.19110247
C 0.7396537 -0.11184346 0.036083456
C -0.14592442 0.9236784 0.3177091
C -1.531925 0.96827114 -0.28245127
C -1.9241229 -0.34803 0.21082824
C 0.27989954 -1.4258062 -0.034645636
H 2.6550741 -0.53228176 -0.8735983
H 2.3549805 1.20338 -0.599466
H 2.7619567 0.12738022 0.7515773
H 0.18681304 1.7580217 0.9341598
H -2.094841 1.7782469 0.18132885
H -1.5595307 1.0746434 -1.3637427
H -2.192009 -0.45418856 1.2650098
H -2.225605 -1.1603711 -0.44298196
H 0.7943004 -2.1461406 -0.6741546
H -0.29830724 -1.8525918 0.76544636
