18

C -2.5566597 0.2949724 0.41067126
C -0.7874061 0.2593427 -0.913045
C 0.24515606 1.0865201 -0.15942623
C 1.2100261 -0.06926439 -0.5457647
C 2.34683 -0.39609724 0.38866138
C -0.024283005 -1.0139269 -0.54701996
H -1.9866887 -0.21530572 1.1896056
H -3.477823 -0.2426055 0.17514856
H -2.7673752 1.328464 0.70280683
H -2.0517728 0.37502256 -0.71108526
H 0.1451675 1.0850443 0.9417587
H 0.44206238 2.1055653 -0.5202858
H 1.5862842 0.07063069 -1.5616378
H 2.8597536 -1.3169563 0.08923375
H 3.0854151 0.41478354 0.4148753
H 1.9770541 -0.5424923 1.4212238
H -0.07503132 -1.8468914 -1.260719
H -0.17070964 -1.3768059 0.48499852
