16

C 1.7114482 0.26290295 0.514324
C 0.7397604 0.26846793 -0.6584274
C -0.67919415 -0.11972599 -0.2748422
C -0.89655775 -1.5721962 0.06678366
C -1.6950567 0.7979789 0.21119273
O -1.689695 0.47327945 -1.10917
H 1.811833 -0.73371416 0.96227235
H 1.3788581 0.9426322 1.3012809
H 2.70604 0.58540034 0.1896329
H 1.1035304 -0.41304973 -1.4458534
H 0.70219344 1.2604846 -1.1141139
H -0.55611455 -2.219687 -0.75429106
H -0.3372436 -1.8570174 0.9636639
H -1.970486 -1.7694724 0.23179033
H -0.7086526 2.161473 0.30123103
H -1.6206633 1.9322436 0.6145264
