15

C 1.6913637 -0.77342504 -0.70358515
O 0.9432886 -0.56765765 0.38429737
C -0.19808163 0.06172635 0.35283527
C -1.0755763 -0.09925712 -0.8605871
C -0.80502987 0.31569517 1.6936243
H 1.489138 1.0830001 -0.88252413
H 1.2085512 -1.0094109 -1.6367806
H 2.6532412 -1.2089787 -0.47583157
H 0.8889782 1.4481177 -0.49060383
H -1.3012428 -1.1593721 -1.0074143
H -0.58551973 0.28260928 -1.7634966
H -2.013599 0.45210573 -0.71916586
H -1.398228 1.2367721 1.6681389
H -0.02221736 0.4360734 2.4446878
H -1.4750663 -0.49799842 1.9964054
