18

C -1.4079974 0.75601125 -1.0893451
C -0.60797846 -0.23892869 -0.24764635
C -1.5442814 -0.9826607 0.70625824
C 0.5212785 0.42033458 0.51837164
C 1.7429656 0.7391266 -0.1350841
O 2.7248425 -0.5403757 0.7193714
H -0.7544831 1.2638097 -1.8327138
H -1.8485181 1.532889 -0.4578951
H -2.2146726 0.26343423 -1.6412596
H -0.163057 -0.98287034 -0.92850363
H -1.9892268 -0.29460073 1.4304782
H -1.0091511 -1.748377 1.2850232
H -2.3518384 -1.4832374 0.15979955
H 0.19302495 1.1159129 1.2918595
H 1.549947 -0.4915543 1.0412763
H 2.3570342 1.5759907 0.18012927
H 1.9162585 0.41451725 -1.1599499
H 2.885853 -1.3194216 0.1598301
