17

C -1.9395723 1.0532572 -0.37109214
C -1.4044408 -0.343206 -0.036619194
N -0.018688522 -0.48817152 -0.4779496
C 0.89920753 -1.7072986 0.35336828
C 1.0475643 -0.23451859 0.47621083
C 2.263438 0.4769928 -0.069699086
H -2.9887233 1.1463932 -0.0836845
H -1.3679117 1.8232472 0.15458319
H -1.8402556 1.2286096 -1.4475635
H -1.4976678 -0.5250008 1.0473042
H -2.011622 -1.1036142 -0.54179996
H 0.18875182 -2.047859 1.126448
H 0.3037651 -1.4529577 -0.9141849
H 0.64608794 0.24091016 1.3823422
H 3.077164 0.44144773 0.66392833
H 2.0403647 1.5262127 -0.29155776
H 2.6025386 -0.034444157 -0.9700344
