16

O 2.130217 0.9442145 -0.20485464
C 1.8798314 -0.4579159 -0.078246735
C 0.43175733 -0.8007189 -0.42219725
C -0.54298747 -0.12377578 0.518408
C -1.9879725 0.03286968 0.033111777
C -0.6937457 1.353238 0.49383876
H 1.5795327 1.3927711 0.4346984
H 2.1227853 -0.8144447 0.9400935
H 2.5707908 -0.93452466 -0.7802623
H 0.31147096 -1.9009982 -0.3677885
H 0.24298999 -0.4893787 -1.4571965
H -0.49578997 -0.5303033 1.5252053
H -2.1470516 -0.17899138 -1.0181237
H -2.72677 -0.37745294 0.7138163
H -0.48915985 1.6934651 -0.54401267
H -2.1858988 1.1919463 0.21351032
