16

C 1.9053531 0.15066648 0.42935294
C 0.8694604 0.39170942 -0.6567461
C -0.57079655 0.1538246 -0.21874028
C -0.919493 -1.2268772 0.28668925
C -1.9267569 1.4487011 -0.26780975
O -1.451719 0.5773965 -1.2527996
H 1.9108112 -0.89095527 0.77279156
H 1.728807 0.8058069 1.2875811
H 2.9074297 0.37506056 0.04141371
H 1.0539078 -0.27569914 -1.5107235
H 0.92116 1.4160303 -1.0323024
H -0.6201014 -1.9715005 -0.45955035
H -0.4180331 -1.4528816 1.2336057
H -2.004522 -1.325157 0.41599846
H -0.72903955 0.9734423 0.60026556
H -2.656467 0.85043275 0.33097365
