17

C 2.8067644 -0.3827562 0.26761308
O 1.5956742 0.19688421 -0.1331384
C 0.56817895 -0.008579195 0.79020005
C -1.1699309 0.2455429 -0.88983965
C -2.5318177 -0.23977864 -0.99539924
C -0.78099614 0.80167097 0.37735686
O -1.6249009 0.835523 1.3238772
H 3.1306095 -0.0019093701 1.2479988
H 3.548729 -0.17087647 -0.49718535
H 2.7015612 -1.485439 0.3332949
H 0.8190437 0.37952068 1.7781179
H 0.32214415 -1.098085 0.83125573
H -0.42694122 0.15929833 -1.7011466
H -3.2051969 0.60025465 -0.7685697
H -2.8008382 -0.7362906 -1.9169254
H -2.6893842 -0.8509408 -0.08108314
H -0.26270038 1.7559606 0.033572923
