15

C -0.96584195 1.3377787 0.56228554
C -0.5856026 -0.12955882 0.63134235
C -0.638471 -0.90588284 -0.69467366
O 0.74103695 -1.3519483 -0.63721985
C 0.9251091 -0.47796348 0.70912004
C 1.8816144 0.5028063 0.159003
C 1.7870576 -0.083381645 -0.9907687
H -2.0293508 1.4560313 0.31286052
H -0.8187743 1.8266408 1.5305009
H -0.37252897 1.8711663 -0.19878751
H -1.1426513 -0.6475769 1.4097718
H -0.8275606 -0.3042899 -1.5914041
H -1.2854966 -1.7875537 -0.69911355
H 1.2403508 -1.1534692 1.5233387
H 2.0911093 -0.15279889 -2.0262556
