15

C -1.0834868 -1.2582929 0.65211254
C -0.90121675 -0.27665985 -0.33656645
C -1.4085883 1.1383206 -0.115145296
C 1.2668655 0.0032884737 -0.16408975
O 1.4861606 -0.7298952 0.8918422
N 2.4219253 0.43165764 -0.68937606
H -1.5161688 -0.9697703 1.6030217
H 0.5151959 -1.1008158 1.0560993
H -1.1267592 -2.295577 0.36742303
H -0.81647635 -0.59083 -1.3706442
H -0.8646475 1.8382155 -0.7526977
H -2.476967 1.1822313 -0.3440349
H -1.2700737 1.426761 0.9332873
H 2.45085 1.0125448 -1.4999762
H 3.323387 0.18882151 -0.23125547
