16

O 2.5846236 0.18983404 0.2034347
C 1.4250193 -0.571328 0.49125066
C 0.24178867 -0.18999003 -0.36867207
C -1.0109724 -1.0557201 -0.16310896
C -1.7762145 0.91945374 -0.6495818
C -0.3726256 1.2001302 -0.122480854
H 2.3667707 1.1133131 0.32010996
H 1.7139277 -1.6166317 0.3176554
H 1.1551495 -0.49734384 1.5576062
H 0.5250691 -0.259452 -1.4274713
H -1.3086293 -1.1374627 0.8888196
H -1.0106529 -2.0384884 -0.63826543
H -1.8031607 -0.48270065 -0.85042983
H -2.5159216 0.9803555 0.17330363
H -0.32664117 1.4439578 0.95002717
H 0.112469636 2.0020728 -0.6821971
