16

C 2.6047094 0.7838655 -0.3007388
O 1.2013197 0.75387496 -0.12957707
C -1.0576591 -0.059017837 0.15930957
C -1.5470996 -0.53815484 -1.1461507
C -0.96138823 -0.9886403 1.3116976
C -0.92700315 1.2895133 0.36732045
N -0.17560531 2.2112176 0.3737044
H 3.0714555 1.1655959 0.6098721
H 2.968578 -0.23482612 -0.4465672
H 2.8539493 1.4002978 -1.1688267
H -1.0685585 -1.482435 -1.4137344
H -1.4346262 0.18883827 -1.9503139
H -2.6330783 -0.73439944 -1.0793478
H -1.9762903 -1.281189 1.6327965
H -0.46107036 -0.564116 2.181624
H -0.45763338 -1.910425 0.99893224
