17

C 3.003576 -0.3512303 0.2627258
O 1.8041873 0.1639547 -0.2699959
C 0.702104 -0.4223146 0.37705395
C -0.58073336 0.10508397 -0.22064476
C -2.8075829 -0.20821244 -0.58833456
C -1.0673192 1.3635349 0.12560973
O -2.2532392 1.6329144 -0.13894747
H 3.0903833 -0.08134786 1.3276204
H 3.8193169 0.14268342 -0.28124437
H 3.0776927 -1.4357258 0.13602816
H 0.7477279 -0.18057966 1.4548043
H 0.71424437 -1.5231453 0.31916
H -0.63275135 -0.1562779 -1.2740585
H -3.555517 0.33536163 -1.1692182
H -2.525176 -1.1451367 -1.0883077
H -3.1183481 -0.3676187 0.4462564
H -0.41856483 2.1280563 0.58149254
