15

C 1.3103601 -0.63675267 -0.26515183
C 0.007445397 -0.0055647325 0.20367405
C -0.07815897 1.4710927 -0.15991823
C -1.2023079 -0.77388 -0.33042127
C 0.43214366 0.19697165 1.9872528
N -0.5348462 -0.4785946 2.0088925
H 2.1851661 -0.08173458 0.06725748
H 1.3964816 -1.6650543 0.11061159
H 1.3013257 -0.6693032 -1.3628347
H 0.7941977 2.0325189 0.16813278
H -0.9669869 1.9281422 0.29385948
H -0.16754514 1.5501645 -1.2518084
H -1.1596631 -1.8284293 -0.061541777
H -1.1790465 -0.6945852 -1.4319732
H -2.138565 -0.34499112 0.023968503
