15

C -0.71825296 1.338411 0.2994968
C -0.4283705 -0.13025552 0.53048235
C -1.0354671 -1.1267993 -0.462238
O 0.18468772 -1.913386 -0.44363108
C 0.8949544 -0.85301656 0.21143588
C 2.2499115 -0.5748529 -0.93511605
C 1.8719711 0.56000453 -0.60650975
H -1.77914 1.5558267 0.46731558
H -0.14262107 1.9712406 0.98331505
H -0.49023128 1.6304833 -0.7334406
H -0.71356136 -0.39585486 1.5564729
H -1.2122244 -0.7196974 -1.4645373
H -1.8926907 -1.7242229 -0.13993157
H 1.4801359 -1.2130605 1.0466688
H 1.7308986 1.5951802 -0.3097832
