15

C 2.2257009 -0.032798313 0.2683234
C 0.8932297 0.05418452 -0.4000022
C -0.094115324 -0.9339192 -0.17456786
O -0.20341887 -1.7689133 0.7171234
N -1.3030885 -0.3878298 -0.7922567
C -2.2419007 0.014769654 0.04443625
H 2.9590814 -0.5493421 -0.3821314
H 2.615498 0.96595657 0.4786737
H 2.154171 -0.6076086 1.1947507
H -0.23730353 1.0842378 0.56135255
H 0.8330014 0.6110442 -1.3352925
H -1.206499 0.1656854 -1.6414646
H -2.99114 0.7127024 -0.2928238
H -2.3493145 -0.55548644 0.96848863
H -1.0539023 1.2273167 0.78539044
