16

C 1.505898 0.98020303 0.2660975
C 0.82628536 -0.15863028 -0.45135623
C 0.29746807 -1.3484411 0.3339413
C -1.058165 -1.1466613 -0.3446743
C -1.7042221 0.70954955 0.086653374
O -0.4810746 0.18239363 -1.0109038
H 1.6299071 1.8440062 -0.4141478
H 0.95398927 1.2918161 1.1546186
H 2.5108097 0.6699687 0.5809633
H 1.4338927 -0.4633262 -1.3188746
H 0.8087933 -2.2968626 0.13355926
H 0.30060905 -1.18877 1.4208726
H -1.2523007 -1.8305596 -1.1808462
H -1.646591 0.48405993 1.1523275
H -1.431388 1.75879 -0.090695836
H -2.693911 0.5124637 -0.31753477
