16

O 2.4772036 0.3826139 0.55656445
C 1.5121915 -0.4639094 0.7641529
C 0.2713344 -0.2078093 0.07096511
C -0.996805 -0.96951556 -0.17249405
C -1.7655654 0.37322038 -0.14676814
C -0.4183347 1.1296474 -0.091894254
H 2.1500351 0.29155558 -0.94619113
H 1.7425148 -1.5465266 0.7921312
H 0.8931523 -0.2926755 1.739385
H 1.5391476 -0.015085878 -1.4340092
H -1.2752376 -1.7423297 0.5508873
H -0.9830104 -1.4528637 -1.1624343
H -2.4219122 0.5822739 -0.9839306
H -2.3393242 0.46569288 0.7879585
H -0.24309242 1.8510501 0.7125861
H -0.14229755 1.6146613 -1.0369089
