15

C -1.2221901 1.2556767 0.42654064
C -0.67002016 -0.17352238 0.509474
C -1.2161881 -1.2157598 -0.4529214
O 0.07445941 -1.3078477 -1.1130005
C 0.58935094 -0.36012393 -0.30762798
C 1.8937538 0.10162806 -0.26501593
C 2.9994278 0.50350904 -0.851586
H -2.2235925 1.322668 0.86139
H -0.56018096 1.9461743 0.9794702
H -1.2587248 1.5960615 -0.6201519
H -0.6290713 -0.50032395 1.5504289
H -1.9761633 -0.8772274 -1.1585335
H -1.4859949 -2.1824925 -0.016875325
H 1.7487018 -0.45436502 0.76417434
H 3.9364326 0.34594512 -0.30576584
