15

C 1.4932386 0.4148609 0.10523812
C 0.51488477 0.12563966 -1.0329736
N -0.7278852 0.16215423 -0.25547454
C -1.5381546 -1.0503576 -0.2487483
C -0.20498733 0.57446516 1.0024768
O -0.26637608 1.8067393 1.43829
H 2.0699184 -0.42332423 0.47894555
H 0.84316593 1.3957664 0.97749877
H 2.1890023 1.2383027 -0.11564061
H 0.67627627 -0.85207975 -1.5083978
H 0.51635855 0.9003929 -1.811115
H -0.99823385 -1.9616945 -0.005557235
H -1.992816 -1.1589016 -1.2427659
H -2.349669 -0.9201933 0.47584766
H -0.22472264 -0.25177023 1.7423762
