19

C 1.5657561 0.93637156 0.25105178
C 0.6606796 -0.33062062 0.4432909
C 1.1515387 -1.4352713 -0.51243466
O 0.5531287 -0.7409533 1.7018191
C -0.6948267 0.16486746 0.07278084
C -1.4703943 0.8539019 1.1154151
C -1.3876387 -0.15022422 -1.2152967
H 2.5471065 0.6391475 0.63949335
H 1.2015184 1.7842016 0.8652973
H 1.6985886 1.2617937 -0.7880444
H 1.2498145 -1.1118343 -1.5562221
H 0.5010179 -2.3071544 -0.46865532
H 2.1615033 -1.7478795 -0.1578889
H -2.1101487 1.6419674 0.71455336
H -2.1295357 0.106350854 1.5940391
H -0.77438444 1.2115538 1.9058639
H -1.8700563 -1.1377182 -1.1255286
H -0.6713416 -0.20152655 -2.035434
H -2.182326 0.5630266 -1.4440997
