16

C 2.3093998 0.03641743 0.4420044
O 1.2195119 -0.72146183 0.591182
C 0.08505224 -0.40753543 0.035196085
C -0.52063125 0.9722225 -0.058506485
C -1.9018947 0.2743479 -0.007843155
C -1.2176145 -1.1138687 0.2470161
H 2.156175 1.1100268 0.36322322
H 1.9357159 -0.1544117 -1.4493214
H 3.1597235 -0.3723865 0.9765722
H 1.1779262 -0.3514924 -1.6498921
H -0.29159167 1.5868865 0.82632387
H -0.28680465 1.5690614 -0.94758934
H -2.4544284 0.35339925 -0.9469106
H -2.5510292 0.62307376 0.797354
H -1.3611588 -1.4971527 1.2578696
H -1.4583514 -1.9071264 -0.4766784
