15

C -1.343786 0.5359873 0.64822376
C -1.0115163 -0.82833165 -1.001097
O 0.14806901 -0.5808807 -1.4949588
C 1.2079005 -0.7257897 -0.4264477
O 1.2941989 -1.7363281 0.20274025
C 1.4246749 0.6316648 -0.15594168
O 2.3567803 0.89480215 0.81134707
H -1.1088934 1.4240186 1.261698
H -2.2655675 0.79871297 0.12200857
H -1.5474626 -0.28162688 1.3431357
H -1.8570648 -0.5428107 -1.6143416
H -1.1251653 -1.66624 -0.30206612
H 1.4332573 1.3586409 -0.95818555
H -0.07391848 0.61933404 0.22884445
H 2.468494 0.09884689 1.3350406
