15

C 2.2452576 0.099859364 -0.43454704
C 0.778334 0.09359908 -0.8268216
C -0.17570642 -0.3925749 0.20767474
C -1.343643 0.37607753 0.6448272
O -1.1002798 1.6508056 0.4273459
N -2.6324131 -0.19821745 0.355836
H 2.8700352 0.43851477 -1.2716218
H 2.5838032 -0.8724677 -0.08307576
H 2.3822212 0.8309463 0.38334167
H 0.43266797 1.0905603 -1.1260763
H 0.67229396 -0.60105944 -1.6919191
H 0.14294818 -1.2725362 0.770447
H -1.082009 0.17800333 1.7586917
H -3.1570537 -0.46151972 1.1831872
H -2.6164563 -0.9599911 -0.29728958
