17

C 1.9280565 0.888678 -0.43157884
C 0.896601 -0.8749283 0.08493275
C 0.4852357 -0.68676054 1.4477407
O -0.89467216 -0.26608524 1.3340608
C -1.3248779 -0.5798993 0.050402813
C -2.1357093 0.5605899 -0.5263626
O -0.13869038 -0.7689269 -0.7666662
H 1.861287 0.65280724 -1.48622
H 2.987116 0.8883306 -0.11051468
H 1.5244237 1.9100738 -0.2595085
H 1.7163485 -1.4626905 -0.27050376
H 1.3610721 0.2860177 0.70045596
H 0.60679555 -1.5089846 2.1424334
H -1.8654039 -1.5332453 0.06072689
H -1.5355101 1.4797357 -0.5394825
H -2.459905 0.30039686 -1.5359042
H -3.0121672 0.7148908 0.105987824
