16

C -1.2958401 -0.23627093 1.2906396
C -0.80847484 -0.51094764 -0.09163951
N -0.9651477 1.5153205 -0.8118408
C -0.062056266 0.48678592 -0.8981454
C 1.4751868 0.49348342 -0.09864451
C 1.6217128 -0.918812 -0.033812113
O 0.66128993 -1.6394591 0.30371296
H -0.64771724 0.47914937 1.795555
H -2.304749 0.17601041 1.2573241
H -1.3099005 -1.1768385 1.8585632
H -1.4111214 -1.2104682 -0.6744039
H -1.1468278 1.8899281 -1.7585641
H 0.18103343 0.101839155 -1.9078671
H 1.2302133 0.97124535 0.8447323
H 2.2998955 1.0283422 -0.6011727
H 2.4825037 -1.4493082 -0.47443745
