19

C 1.69625 0.55352616 -1.5639921
C 1.1186526 -0.29257032 0.17459475
O 1.1226746 1.2625209 -0.10121407
C -0.33008578 1.2424978 -0.005964516
C -0.39350843 -0.23377395 0.40579593
C -0.7948294 -0.42774925 1.8668678
C -1.2320404 -1.1371522 -0.5079211
H 2.7429602 0.28660208 -1.416976
H 1.1836777 -0.2234316 -2.132605
H 1.5912573 1.5194272 -2.0782719
H 1.6997541 -0.43426394 1.0985641
H -0.78062385 1.4918256 -0.9796434
H -0.6369044 1.9738722 0.73645
H -0.2149745 0.21980213 2.5334938
H -0.60287666 -1.4657766 2.1723766
H -1.8576138 -0.23520137 2.0218287
H -1.0355113 -2.1838412 -0.2748948
H -0.97407687 -0.9605613 -1.5620328
H -2.3021808 -0.9557521 -0.38645566
