15

O 2.55525 0.567627 0.6603617
C 1.7264619 -0.35922307 0.007840463
C 0.30163997 -0.1415894 0.41146886
C -0.55778754 0.6529335 -0.36678946
C -1.9917762 0.6381328 -0.06565726
C -1.4801368 -1.5979131 0.023283202
O -1.6910387 -2.4796 -0.63109624
H 3.4619431 0.35932544 0.44601992
H 1.9737597 -1.4119244 0.2567975
H 1.8088629 -0.25816894 -1.091991
H 0.124215655 -0.15911531 1.4916679
H -0.94967383 1.69802 0.058706347
H -0.29556265 0.80411917 -1.41494
H -2.7069488 1.0486774 -0.7688146
H -2.2792084 0.638699 0.98314273
