15

O 2.4334204 0.76362944 0.77450234
C 1.6665044 0.1736884 -0.2606564
C 0.4868252 -0.5490338 0.34318775
O -0.3456142 0.362742 1.1172721
C -1.5444057 -0.015329549 0.48902306
C -1.3725964 0.11133428 -0.9969782
C -0.5560172 -1.1242899 -0.64700097
H 1.8134902 1.3109084 1.2801908
H 1.334721 0.9321215 -0.98518777
H 2.3218744 -0.5415498 -0.7749542
H 0.8604732 -1.32164 1.0245926
H -2.4683132 0.22360694 0.996432
H -0.8579929 1.0308899 -1.2739934
H -2.2467155 -0.10320686 -1.6091018
H -1.5256532 -1.253871 0.5226721
