15

O 2.2672966 -0.8630065 0.43088198
C 1.364591 -0.033512812 -0.066126846
C 0.22137345 0.24124856 0.7109035
C -0.81289744 1.1725566 0.05897821
C -1.6827742 -0.017296316 -0.23109925
C -1.0380793 -0.9398983 0.59609294
O -1.0943239 -2.0074658 1.1545227
H 3.0494494 -0.902711 -0.16117638
H 0.42323646 -0.6360939 -1.4040573
H 1.7227798 0.6723423 -0.8307692
H 0.40664127 0.2772614 1.7735928
H -1.2313638 1.9136914 0.7462985
H -0.43492943 1.714618 -0.8241822
H -0.45124745 -0.55729556 -1.3693347
H -2.7097526 -0.034438036 -0.5845248
