15

C 1.6328654 -0.7811424 0.044303417
C 0.53124547 0.06369436 0.6100262
C -0.46195084 1.9056705 0.11427037
O 0.0688506 0.96839577 -1.0305628
C -1.2464925 0.76554304 -0.4307676
C -0.93781954 -0.40720493 0.47643057
O -1.1068071 -1.6929832 -0.061108455
H 2.5281396 -0.19209075 -0.12648244
H 1.3531628 -1.290466 -0.88146377
H 1.8659999 -1.5355067 0.8054129
H 0.80673206 0.55794376 1.5461712
H -0.69408494 2.8488126 -0.39285892
H -2.0704627 0.8317412 -1.132615
H -1.437678 -0.38900146 1.4457326
H -0.8317001 -1.653406 -0.98648834
