15

C -2.3889487 0.09386273 -0.15379798
N -0.9648282 -0.076656796 0.055578377
C -0.3643286 -0.86277074 0.94724184
N 0.94765675 -0.75654787 0.7762162
C 1.2282428 0.15227416 -0.21638732
C 2.7011206 0.23013417 -0.25343576
C 0.02863313 0.5642551 -0.70512617
H -2.655214 -0.14688821 -1.1876775
H -2.9439297 -0.56911254 0.5154671
H -2.6978307 1.1283121 0.04342177
H -0.890549 -1.4897919 1.6635251
H 3.0445657 1.0908222 0.3342447
H 2.0703857 -0.96113986 0.92103404
H 3.1299155 0.33844674 -1.2609557
H -0.24489084 1.2648008 -1.4793488
