17

C -1.5552855 -1.3419815 0.0929103
C -0.55452734 -0.21316843 0.17076783
C 0.88914067 -0.64417315 -0.07896775
C 1.7726051 0.6149625 -0.092723705
O 1.0120207 1.7859439 0.26295167
C -0.83918506 1.0184876 -0.5704689
O -0.63748235 0.48466042 1.3864352
H -1.512503 -1.8791891 -0.85785717
H -1.3488288 -2.0498176 0.90618235
H -2.567172 -0.9588898 0.2573585
H 0.98464924 -1.2039607 -1.009792
H 1.1855844 -1.309935 0.7368745
H 2.1820326 0.80565894 -1.0929512
H 2.6229217 0.52311563 0.5885691
H 0.44377697 1.4554148 1.057389
H -1.7627461 1.5215569 -0.30887708
H -0.3150012 1.3913144 -1.4478008
