16

C 1.0098946 0.97338146 0.7738577
C 0.18815479 0.046973318 -0.123391315
C 1.1230258 -0.79874516 -1.0066887
C -0.72595364 -0.9457449 0.58156794
O -1.9257957 -0.81604815 -0.04940885
C -1.8302602 0.2707901 -0.89768517
N -0.72303087 0.8469651 -0.96648735
H 1.6733167 1.5945565 0.16185613
H 1.6091584 0.39530385 1.4842438
H 0.3514392 1.6437596 1.3308674
H 1.793665 -1.3949479 -0.37120345
H 0.5570298 -1.4910483 -1.6416987
H 1.7210736 -0.15138233 -1.6455187
H -0.925625 -0.7863673 1.8443856
H -1.1403375 0.082911104 1.9411112
H -2.755755 0.529643 -1.4158074
