15

C -2.4884696 0.26879907 -0.6327156
N -1.2681613 -0.046243344 0.08245813
C -0.0070501007 -0.51043427 2.3332803
N 0.867617 -0.4406997 1.4785216
C 1.0911754 -0.07877854 0.26456803
C 2.4568179 0.08808693 -0.32790595
C -0.14992094 0.16847384 -0.47384775
H -2.3131187 0.6608024 -1.6431653
H -3.12138 -0.6199893 -0.6984552
H -3.056199 1.0246966 -0.07561977
H -0.42082962 -1.4838331 2.6262672
H 3.2000506 0.24365936 0.46136156
H 2.7852774 -0.789669 -0.90242755
H 2.4886663 0.95829046 -0.9935336
H -0.064474784 0.55683845 -1.4987863
