17

C -2.0107048 -0.02404425 -0.008829528
C -0.7371192 -0.61245054 -0.62730515
O -0.30552152 0.077341326 -1.7642345
C 0.3575772 -0.7755073 0.39652887
C 1.7294478 -0.5392248 0.080471836
C 1.2005855 1.0528464 0.57241035
O 0.944536 1.8750871 -0.35534793
H -2.38102 -0.6425803 0.81616294
H -1.8360571 0.9960251 0.33356577
H -2.7898808 0.026350059 -0.77926856
H -0.95387137 -1.6413113 -0.9731858
H 0.054839306 0.937015 -1.4331853
H 0.2550389 0.66507196 1.2019295
H 0.10245837 -1.2516588 1.3650291
H 1.9741839 -0.4561108 -0.9728047
H 2.485261 -0.94528204 0.7559719
H 1.9102467 1.2584331 1.3920914
