16

C -1.9202607 -0.47693703 -0.42883325
C -0.39466184 -0.55414146 -0.44959718
O 0.20491223 0.47960216 -1.1917593
C 0.20517166 -0.47566897 0.9842697
N 1.5939246 -0.04369421 0.81214327
C 1.6250485 1.0256798 -0.06692942
O 0.90741146 2.093928 0.17660578
H -2.345214 -1.2940024 0.15702666
H -2.3108425 -0.5271578 -1.4500971
H -2.2277968 0.48068684 -0.0036257857
H -0.08083005 -1.5144856 -0.8861339
H 0.1423698 1.6090558 -0.58971775
H -0.30259478 0.30524868 1.5683284
H 0.16652599 -1.4136996 1.5325595
H 2.200433 -0.80566055 0.49885458
H 2.5364032 1.1112463 -0.66309416
