16

C -1.9662176 -0.93626523 -0.37992734
C -0.61403453 -0.24918254 -0.39821973
O -0.9197035 1.3430101 -0.44042897
C 0.1472084 -0.2507232 0.8809324
N 1.5766909 -0.16445495 0.74070287
C 2.2330375 0.732462 -0.0009317654
O 1.7352349 1.5922209 -0.7290931
H -1.8126695 -2.0172095 -0.4410663
H -2.5795233 -0.6152586 -1.2199454
H -2.496654 -0.72300255 0.554114
H -0.05567847 -0.40579435 -1.3177402
H -0.04910481 1.6711698 -0.79440045
H -0.563106 1.1856762 0.6270624
H -0.1327363 -0.99540323 1.6171366
H 2.1597326 -0.81710327 1.2548553
H 3.337524 0.64985865 0.04694982
