18

C 1.508559 -0.48197275 0.8034041
C 0.49825647 0.49465427 0.4147745
C 0.99838877 1.4205202 -0.6893552
C -0.5363301 -0.54017735 0.044894077
C -1.7699119 -0.69013506 0.88825476
C -1.2323895 0.0364137 -1.7901212
N -1.615358 0.10776733 -2.79255
H 1.2171187 -1.2757353 -0.42437467
H 1.3771129 -0.9771787 1.764522
H 2.5248132 -0.48364702 0.43053165
H 0.08948715 1.0585296 1.2502195
H 1.8062387 2.0559783 -0.27369985
H 0.20311658 2.061238 -1.0495032
H 1.3955604 0.85027236 -1.5278039
H -0.26485753 -1.5210412 -0.4078527
H -2.5104206 -1.3658723 0.46031076
H -1.4505305 -1.0508035 1.878571
H -2.238854 0.3011894 1.0197786
