16

C 2.0369196 -0.6510806 0.2809477
O 1.2976779 -0.089451715 1.1346059
C 0.11646915 0.5534813 0.91083395
C -0.9167089 0.035162315 0.029058913
N -1.9695497 0.7046676 -0.25659436
O -1.9678043 1.9504138 0.35116875
C -0.8353702 -1.3261342 -0.6320273
H 3.0161562 -0.93334544 0.61926013
H 1.565926 -1.1560311 -0.56227255
H 1.907005 1.0044045 -0.72453403
H 1.2353088 1.3605078 -0.5028209
H -0.1662925 1.1984918 1.726768
H -2.8109968 2.3126965 0.06893593
H -0.591258 -2.100605 0.08552127
H -0.10423383 -1.3122928 -1.4428806
H -1.813249 -1.5508848 -1.0859708
