15

O 2.4474127 0.6525019 0.6425545
C 1.6595817 -0.3796027 0.10816652
C 0.22372928 -0.1659083 0.4539526
C -0.6119863 0.700923 -0.38063535
C -2.0178576 0.70224303 -0.20865168
C -1.5153449 -1.6494308 -0.06508751
O -1.8409128 -2.5126646 -0.7176945
H 3.3431244 0.6016223 0.3104724
H 1.9540181 -1.3564479 0.56907237
H 1.7487279 -0.47513115 -0.9823091
H -0.06775319 -0.22465423 1.5039909
H -0.028720124 1.420632 0.31313658
H -0.22352274 0.8786676 -1.3864908
H -2.6433442 1.192967 -0.9471818
H -2.4271524 0.61428297 0.78670496
