17

C 2.1757805 0.058876164 -0.03962586
C 0.6867996 -0.12634793 -0.028851984
C 0.030586105 -1.1961664 0.44213805
C -1.465123 -1.2591721 0.3615132
C -1.4651258 0.5575283 -1.0713203
C -0.14041112 1.0101355 -0.58847976
O -0.12951407 2.117683 0.30791327
H 2.4282193 1.0268524 0.41874436
H 2.5654194 0.044325005 -1.0617721
H 2.6796122 -0.73272634 0.5330414
H 0.56031024 -2.059381 0.8559492
H -1.9638227 -0.6905204 1.1562747
H -1.8646182 -2.2617035 0.3440054
H -1.7212898 -0.8246099 -0.6813959
H -2.276559 1.1547756 -0.6140914
H 0.36985663 1.403645 -1.4860026
H -0.47012037 1.7768065 1.1519603
