15

C -0.23035207 1.3647891 -0.1294515
C -0.19249508 0.019649567 0.36719906
C -1.005913 -1.115579 -0.4788686
C -1.4833692 -0.70371693 0.85534185
O 0.91669935 -0.36316246 0.95908856
C 2.1069596 0.20260012 -0.39227557
O 2.2630587 -0.62745285 -1.2226182
H -0.95407975 1.63034 -0.8820052
H 1.1723332 1.0702537 -0.58146226
H 0.10433773 2.1635199 0.50653744
H -1.5327097 -0.75376314 -1.3527634
H -0.36343917 -1.9806257 -0.6129815
H -2.3953621 -0.12284792 0.94885004
H -1.2651144 -1.3479153 1.7002063
H 2.8594465 0.56391084 0.31520307
