16

C -2.6888955 0.32828346 -0.098474085
N -1.6006376 -0.57644933 0.1804131
C -0.36101514 -0.08306916 0.8828369
C 0.7997782 -0.2877766 0.04174484
O 0.7625555 -0.9560858 -0.9964092
O 1.8898705 0.38102588 0.46266535
C 3.044557 0.20860517 -0.34093907
H -3.0001929 0.77891606 0.8586879
H -3.5382242 -0.20927204 -0.5288342
H -2.3517795 1.1092206 -0.78000396
H -1.2868446 -1.1071235 -0.63147706
H -1.1741538 -1.0426321 1.2042916
H -0.48132575 0.9014198 1.3509943
H 3.8293006 0.7825319 0.15987083
H 2.8370018 0.6156317 -1.3579047
H 3.3200045 -0.8432261 -0.40746257
