17

C 2.0220711 -0.23340833 0.10479502
C 0.55016613 -0.3530358 0.014017805
C -0.56773144 -0.397651 0.9725077
C -1.5288452 -0.3606865 -0.18675448
C -0.35228547 -0.7181191 -1.1464847
C -1.3634325 1.110523 0.13819276
C -0.20222676 1.7498431 -0.27866977
H 2.3848145 0.45275095 -0.66091025
H 2.3402908 0.1660665 1.076396
H 2.5281208 -1.2100872 -0.03459099
H -0.64798933 -0.30953354 2.0515683
H 0.22487332 -1.4418 0.7315934
H -2.5063992 -0.8146994 -0.21333969
H -0.2586464 -0.10146113 -2.0398223
H -0.31226555 -1.790223 -1.3867917
H -2.2142384 1.5266815 0.6739052
H -0.0962763 2.72484 0.18438795
