17

C 2.3089204 -0.18913122 -0.44668007
O 1.2898835 -0.36194712 0.5109888
C -0.750111 0.030002376 0.20759614
C -0.77007693 1.0538278 -0.8343045
C -1.6574165 0.160337 1.3861517
C 0.08196672 -1.1819509 0.009537012
O 0.028391186 -1.5632629 -1.2127225
H 1.9975411 -0.6436476 -1.3907248
H 3.2473 -0.6408987 -0.11804617
H 2.4885736 0.87866247 -0.60191345
H -0.021368746 0.8643144 -1.611413
H -0.67221266 2.050508 -0.39279324
H -1.7624837 1.0260116 -1.3295695
H -1.9081568 1.1904145 1.6259001
H -2.5971181 -0.3590564 1.1399642
H -1.2613698 -0.37108982 2.2503335
H -0.04226249 -1.9430934 0.807696
