15

C -1.598438 -0.836153 -0.75740296
O -0.83030516 -1.934694 -0.26511705
C -0.2128703 -1.066478 0.7251291
C 1.0735861 -0.62332755 0.07538717
C 1.6025333 0.67086333 0.093950994
C 0.93790466 1.861003 0.031643767
C -1.0619932 0.07039219 0.3146669
H -1.3140837 -0.5567037 -1.7949328
H -2.6828513 -1.030726 -0.7236107
H -0.15076804 -1.458594 1.7519686
H 1.6428647 -1.4455806 -0.3584018
H 2.6928468 0.7336792 0.118595086
H 1.4515283 2.7858732 0.29326698
H -0.05697649 1.9589097 -0.37845427
H -1.4929777 0.8715359 0.873311
