16

C -2.169472 0.287871 -0.3364595
C -0.7260508 0.48009366 0.10991144
C -0.2802915 -0.5590206 1.110366
O 1.1505963 -0.5530694 0.9901074
C 1.4656559 -0.20676279 -0.22466362
O 1.0980891 -0.82796985 -1.3420956
N 2.642849 0.40943506 -0.33857405
H -2.9033475 0.3274075 0.49196887
H -2.4601405 1.0235895 -1.0868367
H -2.3199613 -0.7097088 -0.79162556
H 0.13829117 -0.576833 -1.3338845
H -0.59915435 1.4852396 0.5181842
H -0.48437858 -0.38457856 2.174772
H -0.66209275 -1.5709659 0.8703981
H 3.0386493 0.5376701 -1.2615926
H 3.0707583 0.83760256 0.45002422
