18

C 2.0661454 0.8902833 -0.58321667
C 1.361182 -0.23197885 0.19645803
C 0.3677807 -1.0393493 -0.628819
C -0.7372084 -1.5793858 0.20737018
C -1.337985 -0.3012992 -0.37623197
C -1.6847614 0.82665783 0.56675535
H 2.4626012 0.4934296 -1.5221165
H 1.362434 1.6935592 -0.81802356
H 2.8890562 1.3214046 -0.0067392476
H 0.9743612 0.15974426 1.1478862
H 2.089781 -1.0143448 0.47128808
H -0.4786758 -0.017508049 -1.1591166
H -0.63808596 -1.5201031 1.3014573
H -1.2041491 -2.513848 -0.11325276
H -2.113591 -0.5267849 -1.1171986
H -2.5589514 0.5533032 1.1797203
H -1.9583681 1.7354833 0.013421637
H -0.86156446 1.0707368 1.2403579
