17

C 2.860687 0.35145715 -0.19012465
O 1.7215276 -0.13682725 0.50603765
C 0.61198735 -0.31402946 -0.3306592
C -0.5574955 -0.75073725 0.5354168
O -1.0051419 0.18202296 1.4533266
C -1.8268468 -0.7171896 -0.16262458
O -2.4123168 1.2829233 -0.049609695
H 3.6742792 0.4393213 0.5184314
H 2.5730915 1.3692434 -0.60207963
H 3.1424942 -0.29678175 -1.0331974
H 0.3246981 0.6268648 -0.840789
H 0.8078222 -1.1123616 -1.0874189
H -0.35313943 -1.7097511 1.0411631
H -1.7252982 1.1439062 0.7322552
H -2.6676276 -1.2140938 0.29628995
H -1.9185894 -0.45447105 -1.2224499
H -3.2501307 1.3105038 0.43603224
