19

C 2.090541 -0.8140467 -0.42132244
C 0.71854967 -0.3219443 0.08631281
O 0.7370577 -0.30028152 1.5082318
C 0.4545848 0.98450345 -0.56368226
C -1.7094789 1.4041992 0.5500244
C -2.2185528 0.11189798 0.37780526
C -0.3190821 -1.18565 -0.38134575
H 2.853365 -0.08187881 -0.13925318
H 2.110276 -0.89130163 -1.5196323
H 2.311411 -1.789829 0.022351693
H 1.3272197 0.4291326 1.737333
H 1.3469439 1.546643 -0.85330665
H -0.34286076 1.0792313 -1.302452
H -1.2325509 1.7292753 1.4667095
H -1.9469411 2.1527598 -0.2042734
H -2.8150303 -0.15377326 -0.48857358
H -2.252356 -0.5362438 1.2609186
H -0.3576845 -1.4488808 -1.4393371
H -0.7554111 -1.9138129 0.3034916
