15

O 0.14912875 -2.231531 1.3146137
C 0.13648397 -1.1109118 0.7172492
C -0.9738334 -0.97038496 -0.5188312
C -1.137171 0.3281284 0.043368243
C -0.16135064 1.3759996 -0.38827777
C 1.2453344 0.81527287 -0.27099323
C 1.4212492 -0.38448644 0.24398917
H -0.46738514 -1.0489998 -1.4863888
H -1.7711346 -1.6955234 -0.3515248
H -1.9896657 0.5762759 0.6676318
H -0.27469397 -0.18971516 1.3903878
H -0.361235 1.6459421 -1.4245592
H -0.26580074 2.2971463 0.21418546
H 2.0731397 1.4530984 -0.58530056
H 2.3769343 -0.86031073 0.4344503
