18

C 1.8601551 0.84399474 -0.606583
C 1.6909293 -0.40685293 0.18678746
C 0.6098846 -1.2400718 -0.33878183
C -0.74849015 -1.1860518 0.18135199
C -0.96757376 0.2783158 -0.24692418
C -1.9243342 1.0000728 0.7023277
H 1.7271572 0.75126517 -1.6795728
H 0.02617914 0.921078 -0.29276332
H 2.841646 1.3075867 -0.43123308
H 1.5609515 -0.23424995 1.2510288
H 2.5932202 -1.0426456 0.059442557
H 0.76961994 -1.6341913 -1.3458616
H -0.7768171 -1.3154975 1.2751244
H -1.414522 -1.9051989 -0.29895276
H -1.3798192 0.24709725 -1.2643421
H -2.9321003 0.5587997 0.7210604
H -2.0090694 2.05213 0.40553182
H -1.5270168 1.0044202 1.7223593
