16

C -2.3560274 0.300841 0.18668091
C -0.59423476 -0.38097572 -0.5331082
O -1.1685297 1.0615954 -0.77397704
C 0.55946916 -0.22240737 0.3721593
C 1.7410387 -1.1404457 0.19802046
C 1.9092823 0.33027345 -0.06866604
H -2.8895543 1.2591202 0.3602794
H -2.1216497 -0.13446903 1.1570276
H -2.961535 -0.35883844 -0.42486623
H -0.23068586 -0.63675976 -1.57438
H -0.60924166 1.706466 -0.28080243
H 0.3185977 -0.011293288 1.4160255
H 2.2191696 -1.5545554 1.0834029
H 1.7198374 -1.8141838 -0.6561373
H 1.9900004 0.6641377 -1.1003077
H 2.474063 0.9314947 0.63864875
