15

C 1.6213149 -0.5623931 -0.5868637
C 0.6253822 0.31731847 0.13878347
C -0.9501928 1.6104144 -0.37165886
N -1.496521 0.832525 0.7331371
C -0.62819767 -0.3227075 0.77212363
C -1.1256009 -1.4502221 -0.0555879
N -1.5331768 -2.3085656 -0.7198281
H 1.1311318 -1.1543189 -1.3636733
H 2.421451 0.02321493 -1.0353259
H 2.0734396 -1.265874 0.13510013
H 1.1109802 0.99827754 0.83957493
H 0.057449237 0.9276932 -0.8289816
H -0.40222034 2.4855363 0.009628013
H -2.4581099 0.59058404 0.5544006
H -0.44712925 -0.7214826 1.7791712
