15

C 2.0747736 0.043651283 -0.034346424
C 0.5841228 -0.060844097 -0.10282967
C -0.30732223 -1.2235714 -0.6322535
C -1.3981898 -0.20320645 -0.882517
C -1.4921917 -0.5418476 0.58262813
C -0.41690633 0.51567924 0.8644702
C -0.42757258 0.9686211 -0.57830894
H 2.3839138 1.0283021 0.3359708
H 2.4633608 -0.7206859 0.65221965
H 2.5182498 -0.12677512 -1.02039
H -0.88393855 -1.6293994 0.5632594
H -2.20628 -0.28041217 -1.6064563
H -2.411961 -0.7926605 1.0989193
H -0.21389417 1.0734273 1.7649233
H -0.26616403 1.9497216 -1.0052891
