15

C -1.227318 1.1548054 -0.45390427
C -0.52410454 -0.067279 0.07759634
C 1.5487856 0.316228 -0.8817487
C 2.125006 -0.2553533 0.17043583
N 2.1934829 -0.8445037 1.2432038
C -0.4719122 -0.81814975 1.1857556
N -0.7051121 -1.4329506 -0.10385971
H -0.84799194 2.053867 0.029999493
H -1.1515136 1.2395872 -1.5308564
H -2.2939274 1.0628868 -0.21413076
H 1.4922614 1.3951217 -0.94729495
H 1.4637823 -0.2611089 -1.7944403
H -1.0011795 -0.82972187 2.1180997
H 1.0697111 -1.0460838 1.4789612
H -1.6699699 -1.6673452 -0.3778167
