16

C -2.1265976 0.037858322 -0.4048231
C -0.66849947 0.36575305 -0.11614429
O -0.38649607 1.5161488 0.44179058
C 0.17181395 -0.83946776 0.32248893
C 1.6934277 -0.6904781 0.2923603
O 2.4033144 -1.6372311 0.018672593
N 2.163973 0.52110195 0.61588407
H -2.5796869 -0.22889858 0.54981446
H -2.2439992 -0.7697936 -1.1166245
H -2.6426733 0.9304641 -0.7616135
H -0.15007836 0.41317475 -1.4692737
H -0.10227611 1.1908389 -0.90390855
H -0.12606344 -1.0175147 1.3594232
H -0.06359976 -1.731475 -0.2756618
H 3.15539 0.6702 0.6374218
H 1.5020516 1.269319 0.81019354
