19

C 2.3797143 0.15401836 1.3219978
C 0.99526316 0.6911695 0.984319
C 0.4265793 -0.047857963 -0.24035867
O 0.079995066 -1.3498477 -0.03554142
C -0.91907907 0.39613664 -0.63208175
C -1.4487203 -0.01694864 -1.9619457
O -2.0892282 -0.6953091 0.8340473
H 2.3128757 -0.9343876 1.4348603
H 3.0886333 0.3480309 0.52006
H 2.763142 0.5957564 2.2443042
H 0.3191075 0.5559002 1.8164879
H 1.0580146 1.7703191 0.7677088
H 1.1286507 0.043534424 -1.093643
H -1.2273593 -1.2034491 0.7731887
H -1.4418126 1.1907341 -0.09465241
H -1.0400743 -0.9751598 -2.249745
H -2.5475106 -0.038815524 -1.9923352
H -1.1432902 0.748181 -2.6886969
H -2.6949012 -1.2320052 0.2920259
