15

C -1.0076855 1.1431987 -0.092354886
C -0.23938105 -0.16324161 0.046091896
C 1.1861197 -0.14931569 -0.5047071
C 2.0525308 0.7856576 0.2296503
N 2.693674 1.5435169 0.81901383
C -0.8513191 -1.6950378 0.8960941
N -0.9722149 -1.3251405 -0.47187525
H -0.44968164 1.9822323 0.33322224
H -1.1740338 1.3534827 -1.1585531
H -1.972283 1.0747241 0.41784245
H 1.1522133 0.15191536 -1.5621057
H 1.610468 -1.1546949 -0.4653011
H -0.2500223 -0.32134622 1.203599
H 0.15822607 -2.1678166 0.9589921
H -1.9366106 -1.0581341 -0.6496087
