17

C -2.2585196 0.23114552 0.23115687
C -0.75912744 0.1692923 0.41460025
C -0.13259685 -1.1093348 -0.18639782
C 1.3511429 -1.0680403 0.014422317
C 1.9334613 0.24098901 0.010611992
C 1.1347907 1.4199924 -0.14386849
O -0.20825657 1.3158633 -0.24463497
H -2.7357078 -0.6127397 0.72992194
H -2.4988987 0.18855269 -0.8525231
H -2.66768 1.1498387 0.64777124
H -0.49672168 0.2146412 1.4804626
H -0.44081157 -1.173862 -1.2416462
H -0.5599297 -1.9838315 0.31535307
H 1.9392843 -1.9612206 0.09636636
H 2.9814587 0.39396703 0.24500374
H 1.5605158 2.382695 -0.37020472
H 1.857596 0.20205182 -1.1463951
