15

O 0.5533638 -2.7967148 0.14707665
C 0.24554676 -1.581591 -0.15801854
C -0.8751655 -0.9071567 0.41104963
C -1.2110559 0.5102017 0.26829523
C -0.14222227 1.3875674 -0.3795453
C 1.2135906 0.8327168 -0.04967925
C 1.3871282 -0.48188984 0.12597416
H 0.16790378 -1.329812 -1.2835163
H -1.5681409 -1.4905461 1.0231404
H -2.174226 0.60912013 -0.26471242
H -1.4389782 0.888071 1.2898369
H -0.30772236 1.3634223 -1.4757432
H -0.25097135 2.4333293 -0.033240736
H 2.0680828 1.5007097 -0.025789337
H 2.3328667 -0.93742734 0.40487206
