15

C 2.3644729 -0.89562964 -1.4940408
C 1.6695316 -0.2316874 -0.47733223
C 1.2764547 0.7501558 0.27747142
C -0.068373226 1.2142444 0.6932422
C -1.288904 0.5069782 0.1602524
C -1.9749186 -0.5210122 0.94694
O -2.5230248 0.7805433 0.786368
H 2.6782691 -1.9163057 -1.391884
H 1.0701203 -1.2056878 -0.7128377
H 2.5570571 -0.3908328 -2.4472067
H -0.11618702 2.2928267 0.43662718
H -0.12433346 1.2178962 1.7963717
H -1.360635 0.48770487 -0.932543
H -2.5415974 -1.3115082 0.42756638
H -1.6179323 -0.7776859 1.9310052
