15

C 2.076899 0.21883635 -0.23024385
C 0.59632045 0.28535593 -0.035729572
O -0.13283396 1.0573534 -0.9905818
C -1.2415997 0.933807 -0.053428303
C -1.6429423 -0.528175 -0.22815803
C -0.2649192 -0.92260295 0.3102826
C -0.20372316 0.777339 1.1337056
H 2.4843776 1.2310615 -0.20876057
H 2.5205204 -0.3454417 0.6013899
H 2.3553252 -0.25945657 -1.1716241
H -1.9578328 1.7479138 -0.1298951
H -2.4561534 -0.8357783 0.43154478
H -1.8672774 -0.823861 -1.2590371
H 0.1701489 -1.9206294 0.34529045
H -0.43630984 -0.6157221 1.4852451
