16

C 1.4883747 -1.0861741 -0.17159614
C 0.30937886 -0.7331488 0.659562
N 0.7840086 1.280219 1.348917
C -0.34211057 1.4171154 0.7253468
O -1.129551 2.2980185 0.36734238
C -0.8906465 -0.15980664 0.19895728
C -1.2565372 -0.085379146 -1.2744511
H 1.5260582 -0.5204294 -1.1043282
H 1.4243976 -2.140546 -0.44401482
H 2.4130578 -0.9168604 0.38448521
H 0.36840457 -1.0082831 1.7110887
H 1.096107 2.190838 1.6845582
H -1.7441381 -0.37261158 0.8434006
H -0.38431108 0.076735586 -1.9128155
H -1.926479 0.7672714 -1.4033884
H -1.7360139 -1.0069588 -1.6130642
