19

C -2.4645507 0.10113882 0.7444433
C -1.2757969 0.8946047 0.17487739
C -0.69281554 0.31566277 -1.1009821
C 0.73496133 0.65968394 -1.2654922
C 0.82182777 -0.7432426 -0.6457956
C 1.5490271 -0.8717856 0.66134226
O 2.978728 -0.7920042 0.43779546
H -3.207794 -0.07160881 -0.06069619
H -2.9419541 0.636703 1.5623856
H -2.146847 -0.8722214 1.1223357
H -0.55862206 1.117388 0.977517
H -1.6268059 1.8821719 -0.18740296
H -0.32407883 -1.0061578 -0.61556095
H 1.1248128 0.74437064 -2.2800643
H 1.1560614 1.4320692 -0.59197885
H 1.1248189 -1.4884361 -1.382711
H 1.2166013 -0.11802994 1.3809971
H 1.3965839 -1.8564539 1.1039134
H 3.1358411 0.036147337 -0.034922887
