21

C -1.6612369 -1.5362787 -0.39433473
C -0.7114723 -0.46462727 -0.9227124
C -1.1475008 0.948554 -0.7698683
C -0.18745072 1.6337649 0.75568074
C 0.39200485 0.056302406 -0.033226416
C 0.6140858 -0.72295976 1.2552285
C 1.7041954 0.3700974 -0.7367559
H -1.1671538 -2.493299 -0.2407295
H -2.4919188 -1.661335 -1.0996641
H -2.1173074 -1.2106644 0.5470767
H -0.29454517 -0.747551 -1.8888602
H -0.615889 1.5228869 -1.5525181
H -0.4387877 2.613773 0.34443086
H 0.816004 1.76989 1.1707407
H -0.8577846 1.4114499 1.5687008
H 1.3191243 -0.19701445 1.9067509
H 1.0289322 -1.6998583 1.0187443
H -0.30820054 -0.8887442 1.8143877
H 1.5355475 0.8958592 -1.6773658
H 2.3674376 0.9655345 -0.09882351
H 2.2219164 -0.5657802 -0.96688235
