15

O -0.06483594 2.6930032 -0.33141968
C -0.11992865 1.4855546 -0.17630868
C -1.1914588 0.590954 -0.5665798
C -0.9398109 -0.74185497 -0.051527243
C 0.47460902 -0.78496885 0.46218893
C 1.5206075 -0.41278428 -0.5246438
C 0.97538793 0.63608044 0.4334206
H -2.026983 0.8382711 -1.2041595
H -1.7278459 -0.14246906 0.7201572
H -1.624719 -1.0255746 1.2138308
H -1.3771582 -1.6288607 -0.5451184
H 0.7359799 -1.4629645 1.273846
H 1.2434881 -0.31290567 -1.5710511
H 2.5244935 -0.77894574 -0.3492651
H 1.5981746 1.0474652 1.2166297
