15

C -1.6096694 -0.6295849 -1.2237579
C -0.5329267 -0.26124108 -0.22858796
C -0.95871913 0.31272995 1.0737339
C 0.80181515 -0.47961447 -0.4861678
C 2.0325518 -0.6132149 -0.08384801
C 2.7011342 0.45437488 0.5915506
O 2.3507807 0.8813381 1.6873046
H -2.2785282 0.2051142 -1.4384238
H -1.1948005 -0.98506886 -2.1709986
H -2.1899037 -1.442117 -0.77547055
H 0.43854904 0.3012524 -1.3151517
H -1.7704002 -0.28567976 1.4909776
H -0.12314211 0.35634348 1.7899953
H -1.293355 1.3519924 0.97996294
H 3.626614 0.83337545 0.10888102
