16

C -2.187923 0.78691924 1.2173244
O -1.6168127 -0.33271736 0.5607906
C -0.9248365 -0.08831486 -0.52287394
C 1.5638261 -0.7899589 -1.5376362
N 2.061427 -0.7746926 -0.24339841
C 1.5864017 0.094911754 0.6298658
O 0.7013811 0.89550674 0.22765626
H -1.4506712 1.4980229 1.5524739
H -2.942962 1.2513381 0.5674299
H -2.724666 0.3486177 2.0882404
H -1.0809247 0.90442765 -0.9857338
H -0.8636397 -0.9139327 -1.2181234
H 1.3224162 0.1692571 -1.9522122
H 2.065469 -1.50584 -2.1875343
H 2.6382136 -1.5169952 0.11524811
H 1.8533013 -0.02654953 1.6884828
