15

C -2.33971 -0.061806884 -0.5998491
C -1.0666517 -0.42627972 0.13186221
C 0.12122456 0.39748055 -0.37015975
C 1.4322201 0.12570058 0.27953953
O 1.4552037 -0.7631015 1.2019023
C 3.4057665 0.33478606 0.6191827
O 4.261642 0.99205077 0.18286887
H -2.6070728 0.9935389 -0.46452156
H -3.1873724 -0.66012275 -0.23079875
H -2.2628992 -0.24286915 -1.6791188
H -0.84918815 -1.4979562 0.0039043704
H -1.1921797 -0.26671278 1.2136604
H 0.29234105 0.23548955 -1.449854
H -0.056289554 1.4790963 -0.23052059
H 2.5929656 -0.63929373 1.3919022
