21

C -1.6439362 -0.71560806 -1.0953895
C -1.1991081 -0.32575104 0.30815896
C -2.2434943 0.53072345 1.0136205
C 0.14840218 0.38493854 0.29537636
C 1.2232279 -0.49446952 -0.33215472
C 2.8080559 0.537496 -0.092017986
O 1.4415988 -1.6720564 0.27615544
H -2.6476812 -1.1701387 -1.0609359
H -0.9712807 -1.4613726 -1.5308348
H -1.6934955 0.14289862 -1.7619778
H -1.0350848 -1.2502575 0.88003254
H -3.2021706 -0.004394022 1.0871134
H -2.422957 1.4649017 0.47940955
H -1.9333817 0.7765913 2.0364156
H 0.4347132 0.6143435 1.3319956
H 0.088851415 1.3436108 -0.24875328
H 1.2176923 -0.46903014 -1.4273456
H 2.8957405 0.9784719 0.90120566
H 2.5439644 1.3355947 -0.8170572
H 3.789607 0.165046 -0.41870865
H 2.4007359 -0.711538 0.17569177
