19

C -1.9849381 0.070596494 0.58961165
C -1.2717165 -0.59299594 -0.5571172
C -0.10226254 0.01970691 -1.3001082
C 0.63899547 1.1812416 -0.6357406
C 0.9523106 0.6937121 0.7842093
C 0.97685176 -0.8385927 0.74211293
C 0.10468453 -1.2181883 -0.45546666
H -2.7329278 0.7841564 0.22374058
H -2.491075 -0.67247903 1.2171168
H -1.3084514 0.627893 1.2417146
H -1.9609647 -1.144798 -1.1966914
H -0.07202955 -0.027234137 -2.3887205
H 1.518328 1.4625089 -1.2297999
H -0.007110525 2.0748365 -0.58447295
H 2.8187733 1.0622085 0.8634863
H 2.1080508 1.2279668 1.2808758
H 0.547429 -1.2404523 1.6766471
H 1.976791 -1.2795892 0.6422385
H 0.2892619 -2.1904979 -0.9136361
