16

C 2.609048 -0.09972136 0.3591559
C 1.6196625 0.41918835 -0.5751954
C 0.86785126 1.0335553 -1.36568
C -0.008961478 -0.39690015 -0.71183735
N -0.78216803 -0.055768244 0.46130982
C -2.1427386 -0.49558678 0.457836
C -1.8127635 0.93438864 0.2850686
H 3.491277 0.53525656 0.34395283
H 2.9137518 -1.1276369 0.11945306
H 2.213177 -0.08961387 1.3807284
H -0.5891701 -0.49190313 -1.6235104
H 0.50738215 -1.3294721 -0.520482
H -2.5245278 -0.83959824 1.4187294
H -2.5143971 -1.0111102 -0.4283324
H -1.9030008 1.3732803 -0.7092269
H -1.9444222 1.6416419 1.1080303
