19

C -2.2772038 0.050085556 0.7325071
C -1.0945907 0.8770325 0.2285801
C -0.27910247 0.1249237 -0.82619804
C 1.0208269 0.7380865 -1.187469
C 0.3432324 -1.175153 -0.39287853
C 1.3417708 -1.0674099 0.6343864
O 2.3891814 -0.06973436 0.023441657
H -2.9758995 -0.1811499 -0.07687615
H -2.8264441 0.5693843 1.523174
H -1.9131331 -0.9124466 1.1454338
H -0.44499233 1.1201712 1.0849025
H -1.428369 1.8311309 -0.1835409
H -0.86646605 -0.05505954 -1.7190536
H 1.4771373 0.43604892 -2.1178508
H 1.3164895 1.7133095 -0.8148214
H 0.47581047 -1.9216471 -1.1672423
H 1.0645194 -0.5781702 1.5707432
H 1.8891989 -1.9995031 0.8392741
H 2.788034 0.5001006 0.7034879
