17

C 2.5983875 -0.67260444 -0.2441338
C 1.2266393 -0.69500965 0.35771516
O 0.28849712 -0.16741578 -0.58923095
C -0.98809123 -0.35495973 -0.2782711
C -1.4595668 1.306236 0.93185997
C -1.9788145 -0.18279415 -1.3128515
O -3.1256914 0.20391695 -1.2263848
H 2.8626184 0.35453606 -0.53524065
H 3.3429084 -1.021059 0.46878204
H 2.6337337 -1.3079591 -1.1296563
H 0.9050558 -1.6932241 0.6328727
H 1.1819897 -0.029043179 1.2430345
H -1.3239123 0.07437817 0.8974611
H -2.4563751 1.5907973 0.5472784
H -1.4582462 1.3584728 2.0184896
H -0.6548668 1.8670869 0.47598097
H -1.5942655 -0.6313552 -2.2577052
