19

C -2.756433 -0.30950955 0.06694838
C -1.2373052 -0.24819367 0.020485686
C -0.5892654 0.8668822 -0.8524527
C 0.1755595 1.371659 0.38505387
C 2.761484 -1.2091708 -0.36579776
C 2.999809 0.06591871 -0.08713908
C -0.46110106 0.33488566 1.1631126
H -3.1762383 -0.66730845 -0.8829216
H -3.181725 0.68859255 0.29466543
H -3.09024 -1.021136 0.84754205
H -0.8098783 -1.2571162 -0.22422385
H 0.12575366 0.45522788 -1.5950061
H -1.2656385 1.5729804 -1.3224822
H 2.700368 -1.5489985 -1.3988634
H 2.6328568 -1.9612039 0.4031345
H 3.1226518 0.8152212 -0.86280715
H 3.0728962 0.40255165 0.93851423
H -0.7030103 1.6281254 1.2883077
H -0.32054368 0.020592615 2.1839297
