17

C -1.8519442 -0.44395348 0.019671537
C -1.4741017 0.82965183 -0.6609501
C -0.40957102 -0.062109586 -0.08316748
C 0.57663405 -0.8812542 -0.91584533
C 1.6227936 -0.7067681 0.8810885
C 1.7788082 0.7832979 0.73420286
C 0.4302854 0.23771739 1.1068859
H -2.2171867 -1.2625116 -0.61228263
H -2.3275206 -0.38940674 0.99861175
H -1.5654234 0.880823 -1.7431158
H -1.6682309 1.7698573 -0.1446745
H 0.21147431 -1.8367451 -1.2799412
H 1.1584048 -0.35414386 -1.6654277
H 1.4624416 -1.4492124 -0.058065925
H 1.9102532 1.2822793 -0.2224483
H 2.349563 1.2253325 1.5483809
H 0.013320601 0.37714615 2.0970774
