15

O 2.1125786 0.41737717 -0.74235135
C 1.3755583 0.6757712 0.35833615
C 0.009344714 1.2599944 -0.031022025
C -0.88242483 0.04847373 0.1878108
O -2.1788533 0.20469566 0.6669198
C -0.47215983 -1.1403219 -0.64229083
C 0.053858206 -0.9646252 0.7383872
H 2.9776983 0.088527806 -0.4594315
H 1.2034081 -0.2388514 1.1225783
H -0.2560061 2.0734246 0.6531135
H 0.019202115 1.6418839 -1.058943
H -2.7364247 0.4631643 -0.08682564
H -1.2634158 -1.889495 -0.7774248
H 0.19416124 -0.99732953 -1.4876661
H -0.15652491 -1.6426898 1.5588096
