15

O -0.06829178 2.5688221 -0.27243516
C -0.1591161 1.3945861 -0.0315584
C -1.4488841 0.57577205 -0.111459285
C -1.0915357 -0.7458671 0.53876644
C 0.3153669 -0.796192 0.79276407
C 1.4232751 -0.44559088 -0.7925743
C 0.9799326 0.4645032 0.3589286
H -1.7830507 0.4949597 -1.1573162
H -2.2633169 1.1043326 0.39543983
H -1.7636738 -1.5660841 0.74549854
H -0.085446045 -1.245413 -0.29543686
H 0.80719525 -1.5686737 1.3822311
H 0.95660126 -0.30936348 -1.7598691
H 2.4236176 -0.8428816 -0.7663148
H 1.7573261 0.91709006 0.9733353
