19

C 2.2216392 0.7335356 -0.0449875
C 1.253221 -0.3097066 -0.60526013
O 0.46744564 -0.423969 1.280561
C -0.5858008 -1.0550219 0.73208535
C -1.7333552 -0.76440936 1.5497476
C -0.7754575 -0.41606653 -0.6123676
C -1.2172025 0.9833078 -0.79615635
H 2.579272 0.40324315 0.9593559
H 1.7315477 1.700238 0.025679618
H 3.082672 0.8130929 -0.70957184
H 1.6787915 -1.3125329 -0.6195744
H 1.045455 -0.017239144 -1.6629618
H -0.47162923 -2.1505606 0.6186753
H -1.9136614 0.2907509 1.7655472
H -2.2879252 -1.475504 2.1447923
H -1.0647345 -1.069904 -1.4480575
H -0.81023127 1.4022716 -1.7258158
H -2.3160496 1.0648909 -0.8947574
H -0.8839976 1.603583 0.04306616
