16

C 1.4255253 -0.86750257 0.14113243
C 0.4337653 0.22781762 0.08328621
C 0.87084514 1.5594965 -0.41244686
N -1.8269618 0.054355737 -0.6322488
C -1.7387564 -1.052949 0.29102594
C -0.9053785 0.13355815 0.61058193
O -1.0382987 0.98431456 1.563852
H 2.113904 -0.62556785 0.97621185
H 2.047295 -0.9324493 -0.74932104
H 0.9863339 -1.8337685 0.3862414
H 1.3075881 1.4321219 -1.4217567
H 1.665918 1.9634284 0.23022783
H 0.04699695 2.278396 -0.43814945
H -1.4208102 -0.186254 -1.5376662
H -2.6255305 -1.1181986 0.93253356
H -1.3424357 -2.016799 -0.023503896
