15

N 1.406107 -0.23735575 -1.3066441
C 0.60330814 -0.73706865 -0.040019494
O 0.67878515 -1.9539251 0.109503314
C 0.5746664 0.3598664 1.0264603
N -0.6246155 1.0871283 0.61012566
C -1.7703959 0.15679497 0.7452626
C -0.99321765 0.21361408 -0.5299342
H 1.7335817 -1.0185976 -1.8365906
H 2.0724683 0.50480384 -1.2065301
H 0.49097857 -0.09418441 2.0255294
H 1.4444478 1.023326 1.0281782
H -1.6583537 -0.70429957 1.3899009
H -2.7335055 0.6924953 0.7698624
H 0.2747677 0.001592079 -1.4221501
H -1.4990219 0.70581 -1.3629541
