16

C 1.8679974 0.40095758 0.10780547
N 0.8197432 -0.5259903 -0.282307
C -0.08180708 -1.0598787 0.6966568
C -1.6101573 0.03533828 0.78755605
C -1.0642649 1.062235 -0.21869738
C -0.35112894 -0.03717167 -1.0299239
C -1.2389 -1.0348053 -0.22707449
H 1.5152102 1.2429886 0.71803075
H 2.3561664 0.77310914 -0.8004165
H 2.617554 -0.16373563 0.6799278
H 0.1783416 -1.9098492 1.3371619
H -0.4873641 -0.25676942 1.5488359
H -0.53469694 1.9600251 0.10787592
H -1.968315 1.3686115 -0.78618133
H -0.21881945 0.05830514 -2.1171298
H -1.7995591 -1.9133701 -0.52211994
