19

C 2.862576 0.24954353 0.06543849
C 1.5667851 -0.55223894 0.15285233
C 0.33781424 0.31691077 0.44811693
C -0.8921858 -0.5379383 0.4769332
C -1.510482 -0.7864031 -0.909788
O -2.8549514 -0.44971704 -0.67941946
C -2.6735806 0.5577429 0.2560772
H 2.8087049 0.98315346 -0.7565573
H 3.0704503 0.80673736 0.97592187
H 3.7237904 -0.40734452 -0.15839404
H 1.6348261 -1.3145556 0.93413836
H 1.4103856 -1.0760717 -0.8042801
H 0.2902125 1.1213987 -0.30619523
H 0.48394927 0.8083003 1.4167454
H -1.9034266 0.023959849 1.086295
H -1.4200398 -1.820104 -1.2585769
H -1.078917 -0.11653997 -1.6835737
H -2.2898273 1.497714 -0.14331499
H -3.5660837 0.69545245 0.8875807
