15

C -2.5384715 -0.2812245 -0.21817313
N -1.338845 0.21398754 0.3276634
C -0.30182546 -0.66601264 -0.02304083
C 0.89351183 0.16243225 0.060803927
C 2.2954686 -0.27337882 -0.24015169
C 0.4390409 1.339948 0.5765245
N -0.93090826 1.3837758 0.746041
H -1.2490349 -1.2263199 -0.74720126
H -2.5883355 -0.057288483 -1.2722691
H -3.4376876 -0.09763451 0.34081024
H -0.2789235 -1.5666269 0.59607685
H 3.0012186 0.53882563 -0.05455784
H 2.4124186 -0.5817482 -1.2853757
H 2.6083808 -1.1167643 0.37942457
H 1.0139928 2.228029 0.81342506
