16

C 1.927221 0.51834726 0.16756836
N 1.0574257 -0.40197554 -0.5212644
C 0.0025604218 -0.9931926 0.3187585
C -1.0940082 -0.11258389 0.7752773
C -0.9265678 1.0050899 -0.24445304
C -0.16930363 -0.017899679 -1.1065797
C -1.7651967 -1.1013428 -0.2122738
H 1.4190929 1.1430348 0.9119705
H 2.417262 1.1408291 -0.5834491
H 2.6814578 -0.07772401 0.67963994
H 0.1913378 -2.0110698 0.6318449
H -1.342922 8.544742e-05 1.820074
H -0.32132638 1.8760855 0.007486153
H -1.8764751 1.3090495 -0.69513595
H -0.34322542 -0.17689428 -2.1742196
H -1.8573323 -2.099839 0.22475594
