17

C -1.1901922 1.0593257 0.40451327
C -1.0627985 -0.4508794 0.22396658
C -1.1417582 -0.9573283 -1.2168877
C 0.22173502 -1.170136 0.021691766
C 1.3631511 -0.24551488 -0.42121276
C 1.9817026 0.30035993 0.80341655
C 2.4347525 0.74714756 1.8356982
H -2.250508 1.3754588 0.35934034
H -0.7949736 1.3517473 1.3874551
H -0.6544263 1.6356884 -0.35653356
H -1.752925 -0.97598916 0.8874317
H -1.9451028 -1.6668024 -1.4034618
H -1.0144094 -0.18602681 -1.9820976
H -0.23015606 -1.7072756 -1.2563635
H 1.0774744 0.59710854 -1.0710602
H 2.1239593 -0.8157166 -0.9708335
H 2.8344758 1.108833 2.754937
