15

C -1.0533897 -1.0386325 0.6184881
C -0.19402227 0.09198182 0.1160753
C -0.6833616 0.98527056 -0.98923916
N -0.5510233 1.5310057 0.31535766
C 1.5119567 -0.4919646 -0.37677783
O 1.4537541 -1.359396 -1.19894
N 2.2419097 0.18623987 0.4230485
H -2.108788 -0.8201412 0.45211992
H -0.8115997 -1.9642416 0.093161866
H -0.9098872 -1.2080303 1.6910939
H 0.019920483 1.3797406 -1.7254609
H -1.6693581 0.7398702 -1.3750966
H -1.3961029 1.5806308 0.85339403
H 0.91110516 0.39556 0.75302154
H 3.2388864 -0.007893285 0.34975368
