17

C -1.5823922 -0.29917777 -0.0017641194
C -0.6830451 -1.4996731 -0.038910888
O 0.5264408 -1.2208452 -0.7388252
C 1.5848088 -0.64851296 -0.0086937025
C 1.4418463 0.780011 0.42324314
C 0.38727748 1.6289002 0.26977244
C -1.3100693 0.82788104 -0.77405393
H -0.6661787 0.6867525 0.4901656
H -2.4897375 -0.34948844 0.6154629
H -0.4866793 -1.8877611 0.97139317
H -1.1550771 -2.322212 -0.5862369
H 1.8172839 -1.2519318 0.8908539
H 2.4639418 -0.69339484 -0.66284037
H 2.3789 1.1502286 0.85041887
H 0.4141438 2.637217 0.6750742
H -0.6832982 0.75163037 -1.6667527
H -1.9581658 1.7103764 -0.7083063
