16

C -1.9182818 0.7418969 0.7740254
C -1.5857008 -0.6093365 0.14381874
N -0.3082915 -0.5921413 -0.5276641
C 0.80845684 -0.5529932 0.25095308
O 1.0091691 -0.73320204 1.3903439
O 1.5778966 1.1530964 -0.6225468
C 2.5006096 0.26588497 -0.78804725
H -1.8829505 1.5447568 0.02985407
H -2.9319472 0.7383903 1.1967778
H -1.1921817 0.99264246 1.5715127
H -1.5876684 -1.4011861 0.8957331
H -2.3411582 -0.87446487 -0.61061597
H -0.19374105 -0.004078388 -1.3233029
H 2.9199104 0.118907504 -1.7970444
H 3.273202 0.13309464 -0.011136999
H 1.8526766 -0.9212676 -0.5726601
