15

N 1.6099929 0.40321752 -1.028427
C 1.6071613 -0.67642564 -0.19439971
O 2.461838 -1.5318247 -0.1251803
C 0.43444258 -0.72745544 0.7760136
N -0.7479695 -0.0030930762 0.35117128
C -1.1935472 1.1971016 0.69811326
C -1.672191 -0.43670332 -0.5379464
H 2.4305813 0.493011 -1.6270599
H 0.976171 1.1637524 -0.91818714
H 0.19369955 -1.7804549 0.9548485
H 0.7441604 -0.26281056 1.7480716
H -1.3444717 1.4575933 1.7469764
H -1.3749629 1.9684613 -0.055126846
H -2.7030275 -0.53944486 -0.2276111
H -1.4218765 -0.7249246 -1.5612563
