21

C -3.6755755 0.13766484 0.53825194
C -2.4375052 -0.5131566 0.013404976
C -1.1962019 0.103225335 0.20236304
O -0.06484153 -0.5660034 0.16170403
C 1.1516869 0.17443186 -0.0996109
C 2.3631513 -0.70872366 0.15717608
C 3.6458611 0.017863415 -0.14907652
H -3.7156467 1.2241001 0.33862102
H -4.5787997 -0.28909424 0.0932406
H -3.7857852 0.032130845 1.6367358
H -2.443575 -1.5623639 -0.23368374
H -1.9363742 0.18513353 -1.0742373
H -1.1385465 1.1331855 0.54625446
H -1.0154127 1.0126936 -1.5989196
H 1.1524115 1.0529548 0.5629678
H 1.1146916 0.54522336 -1.1240517
H 2.2714317 -1.6068528 -0.4645175
H 2.3425243 -1.0477065 1.199062
H 3.7471032 0.9250298 0.4714897
H 3.6783547 0.3657359 -1.1936293
H 4.521049 -0.6154721 0.016455343
