16

C -1.1073937 1.5196333 0.0610305
C 0.0018192716 0.6055925 0.09050952
C 0.08470513 -0.81876683 0.16321984
C -1.055139 -1.788985 0.24697275
C 1.4555528 -1.1061205 0.11358723
C 2.0985928 0.1450257 -0.019604277
N 1.21775 1.1652625 -0.057300624
H -2.1298518 1.1125276 -0.0053121597
H -0.69807625 2.329597 -1.1034762
H -1.029121 2.4134657 0.6756683
H -0.70740736 -2.800121 0.032463584
H -1.8204173 -1.5309896 -0.527818
H -1.5429024 -1.7811433 1.2289647
H 1.8943796 -2.1061325 0.12618841
H 3.175092 0.32114896 -0.08655718
H 0.16241735 2.320006 -0.9385364
