15

C 2.278789 -0.45200008 0.07185383
C 0.8268996 -0.11438952 -0.0041986518
C -0.17173706 -0.8472539 -0.63371074
C -1.372992 -0.18360585 -0.29282543
N -2.6671922 -0.39253286 -0.04313155
C -1.0840216 1.0731409 0.35112277
N 0.3243765 0.9818198 0.6277054
H 2.5912335 -0.5953428 1.115461
H 2.4841335 -1.3809282 -0.4653386
H 2.8962805 0.3475178 -0.35157394
H -0.033532973 -1.8184366 -1.0864203
H -2.4621336 0.7145752 0.6996969
H -3.2039826 -1.0101243 -0.65725833
H -1.3106841 1.9375027 -0.28539312
H 0.90456384 1.7400577 0.9540107
