15

C 2.1090941 -0.13718227 -0.43666294
C 0.6775242 0.094493255 -0.026528656
C -0.120920904 -0.9636086 0.48698023
C -1.5631449 -0.703224 0.3613638
C -1.8914045 0.5961319 0.005595934
O -1.0929189 1.5946877 0.54431635
C -0.01015421 1.240144 -0.30961555
H 2.4354613 0.64069325 -1.1246543
H 2.2173088 -1.1070836 -0.9390569
H 2.777837 -0.13530771 0.42335322
H 0.23214728 -1.940163 0.7664522
H -2.2558713 -1.5212661 0.20559534
H -0.9982644 -0.6420962 1.4718785
H -2.8069897 0.9455414 -0.4568032
H 0.2902958 2.03824 -0.972214
