15

C -2.0959399 -0.47142464 -0.282832
C -0.79673785 0.21927951 -0.08774542
N -0.53423053 1.514926 0.36941582
C 0.9070394 1.157424 0.56876516
C 0.5390322 -0.21238214 -0.020259
N 1.1310675 -1.5025619 -0.0062790564
O 2.4911902 -1.2589566 0.13349257
H -2.762961 0.047083765 -0.95686543
H -2.587291 -0.5708448 0.7032255
H -1.8863139 -1.5080879 -0.6426995
H 0.67797506 -0.5387373 -1.176962
H -0.77782947 2.311783 -0.20702305
H 1.1790036 1.1547976 1.6433262
H 1.5996912 1.7555047 -0.023643237
H 2.9163043 -2.0978036 -0.013916566
