15

C 2.149013 0.62490344 -0.42028144
C 1.4173676 1.3633574 -1.0872029
C 0.37953216 0.32623684 -0.2741247
C 0.23557706 -1.0915928 0.3864003
C -1.1790973 -0.4940298 0.39471987
C -0.54262185 0.8328205 0.86431885
C -0.89923996 -0.05126012 -1.054896
H 2.8455377 0.00010363485 0.099037655
H 0.7212579 -1.2207022 1.3645451
H 0.4321706 -1.942212 -0.27651623
H -2.1079934 -0.9372292 0.75507945
H -1.0843439 1.758751 0.6407936
H -0.09528156 0.85277045 1.8634111
H -0.79125345 -0.81977767 -1.8212395
H -1.4806255 0.7978603 -1.4340451
