16

C -1.3949094 -0.3356078 -0.85306084
C -0.799888 0.037674487 0.36268407
O -0.55251867 -1.7161168 0.8758875
C 0.62204653 0.5492136 0.4869957
C 1.6076385 -0.019168425 -0.5385324
C 0.5554489 2.0306637 0.39002085
N 0.48672694 3.1828191 0.316401
H -0.8333394 -0.17649487 -1.775381
H -2.4729183 -0.20008484 -0.9621325
H -1.1234896 -1.5624331 -0.1973999
H -1.4297029 0.36681065 1.1939045
H -1.1992265 -1.9643294 1.5637232
H 0.9873599 0.28921264 1.4847034
H 2.614593 0.33446983 -0.32861698
H 1.334684 0.28561452 -1.557131
H 1.5974945 -1.1022434 -0.4620657
