17

C -1.7252842 0.5344659 -0.06123052
C -0.9344422 -0.73308533 -0.35416147
C 0.26676953 -0.73432314 -1.2378654
C 1.120369 0.51987165 -1.057827
C 1.3711147 0.84318036 0.40279934
C 0.8849657 -0.04801655 1.2729571
C 0.15944423 -1.184693 0.62221175
H -2.3112402 0.80890834 -0.9472156
H -2.4278336 0.36235964 0.7736207
H -1.0952109 1.3904173 0.20697851
H -1.6246506 -1.5518742 -0.5641711
H 0.88946474 -1.6655279 -0.1634645
H 0.5762794 1.3289962 -1.5651162
H 2.0629258 0.39704219 -1.6089369
H 1.9102051 1.7485422 0.6850311
H 1.0143853 0.010729439 2.3503108
H -0.13726208 -2.0269928 1.2460794
