15

C -1.7127314 1.0116621 -0.6638759
C -0.32013738 0.6532385 -0.12894134
O -0.39365515 0.81689596 1.2722614
C 0.04705807 -0.7808744 -0.5116184
O 1.4802098 -1.0073131 -0.691423
C 2.2559748 -1.1028234 0.3528225
O 1.7774261 -0.91775846 1.552177
H -2.4579656 0.28092664 -0.30818567
H -1.7294012 1.0185921 -1.756486
H -2.0081959 1.993808 -0.29354745
H 0.42743525 1.3230757 -0.56758094
H 0.39428276 0.42072186 1.6536812
H -0.33454204 -1.0345414 -1.506894
H -0.35506335 -1.4886001 0.22086047
H 2.9293048 -1.18701 1.3767501
