16

C -1.146676 -0.9084926 0.70382315
C -0.24814402 0.17338727 0.06672038
C -0.30404538 0.084583454 -1.4632739
C 1.1581825 -0.13413624 0.57971144
O 1.7697035 -1.2109928 0.11697921
C -0.6511244 1.5079184 0.52408206
N -0.9671297 2.5692148 0.8947669
H -0.7323302 -1.8826132 0.44016188
H -1.1578254 -0.82699394 1.800589
H -2.1674044 -0.8090406 0.34526533
H -1.3272176 0.21035293 -1.8151243
H 0.1039331 -0.87808484 -1.7594588
H 0.30428725 0.8729532 -1.9228323
H 1.8747911 0.9795256 0.011143539
H 1.2914402 0.16487227 1.6305641
H 2.1995592 0.08754632 -0.15311776
