16

C 1.613546 1.2310895 -0.004552817
C 0.4378417 0.7204432 -0.69253194
N 1.7268535 -0.015753204 -0.82643247
C 1.1293817 -1.0775756 0.034208108
C -0.24379125 -0.3881654 0.047288634
C -1.4138038 -0.20342886 0.84385043
C -1.6118774 -0.93494993 -0.37519798
H 1.719169 1.1614292 1.0759494
H 2.138148 2.076533 -0.4631911
H -1.0046546 1.725339 -0.5323397
H 1.5853746 -1.1362835 1.0336046
H 1.1386498 -2.0417943 -0.4749449
H -1.5754088 1.4960042 0.07171741
H -1.8030968 -0.13600533 1.8588867
H -1.7754322 -2.0169725 -0.3458128
H -2.0608997 -0.4599095 -1.2505018
