18

C 1.6489177 0.27711847 -1.3554616
C 0.94439816 -0.5654322 -0.33202595
C 1.2592155 -0.46542946 1.1165886
N 0.035362344 0.09976479 0.5827811
C -1.208015 -0.557352 0.92577857
C -2.3156474 0.6268526 -0.4613219
O -1.8944294 1.8448125 -0.03571897
H 0.9864436 0.4949534 -2.2031658
H 2.557116 -0.22294314 -1.7176338
H 1.9567513 1.2246203 -0.91134876
H 0.6086979 -1.5433903 -0.68152326
H 1.9881997 0.26878288 1.4698817
H 1.181462 -1.3630598 1.7377961
H -1.2148777 -1.6449832 0.76178706
H -1.4769269 -0.2895752 1.9460013
H -1.6807566 0.20728007 -1.2451087
H -2.439417 -0.259261 0.4049341
H -0.93649477 1.867241 -0.0022398431
