15

C -1.5778395 0.97256356 -0.3514988
C -0.11157228 0.5802839 -0.47232503
O 0.61744803 0.78338164 0.7445301
C 0.09664199 -0.9131724 -0.7625498
O 1.4618921 -1.1241184 -0.37390256
C 1.6321435 -0.6085193 0.87775326
O 0.90649784 -1.0570595 1.8703375
H -2.0523174 0.3833552 0.44243133
H -2.1027417 0.79984677 -1.2902958
H -1.661824 2.0297654 -0.08783344
H 0.39473996 1.157621 -1.2565044
H 0.28402406 0.018823806 1.599657
H 0.01784609 -1.1892474 -1.8154855
H -0.57059234 -1.5462757 -0.1502865
H 2.6656535 -0.28724808 1.0259727
