15

C 3.0510561 0.3817024 -0.14477588
C 1.7074194 -0.12235112 0.16773184
C 0.5983018 -0.5631571 0.4168835
C -0.6987476 -1.0407509 0.7252073
C -1.864312 -0.7201889 -0.073791325
O -2.9820185 -1.3167322 0.07834292
C -1.9338882 0.8730482 -0.17743595
H 3.0015824 1.3838638 -0.5887582
H 3.5279045 -0.27364877 -0.89090794
H 3.6914039 0.43842623 0.7297527
H -0.7891271 -1.8201526 1.4853129
H -1.3770225 -0.8654222 -1.1121101
H -2.6684248 1.0701714 -0.9526065
H -2.282333 1.2539023 0.77934957
H -0.98179424 1.3212897 -0.44219497
