19

C 2.7891934 0.090038836 0.22875302
C 1.4138086 0.20313534 -0.3954857
C 0.2679885 0.58807755 0.35565156
C -1.0151218 1.0636767 -0.301647
C -2.1568666 0.10951134 0.06883484
C -1.5819073 -1.2988791 -0.049924232
O -0.32645276 -1.2460777 0.5800354
H 3.3447058 1.0350416 0.17815174
H 2.7325494 -0.19501232 1.28369
H 3.3995783 -0.6712963 -0.26115397
H 1.4022303 0.43175837 -1.4536264
H 0.67433125 -0.95315963 -0.17022882
H 0.35655734 0.76196104 1.4220076
H -1.219895 2.090927 0.0130963195
H -0.86614215 1.0754102 -1.3911165
H -3.0533044 0.26800907 -0.5483089
H -2.4440913 0.2914452 1.1188145
H -2.227277 -2.038393 0.42858243
H -1.4898837 -1.6061742 -1.1061257
