16

C -1.905862 -0.28133935 0.19708204
C -0.58060354 -0.27160048 -0.55323887
C 0.19181046 1.061819 -0.51804537
C 1.5117718 0.80984646 0.22103605
O 1.8628131 -0.52367806 -0.17993689
C 0.33700845 -1.2937278 0.06889866
N 0.6085854 -2.173506 0.8467861
H -2.6057644 0.42633715 -0.24708886
H -1.7549706 0.006719788 1.2450055
H -2.3556812 -1.2918532 0.18604651
H -0.754913 -0.5731786 -1.5906283
H 0.41998586 1.38371 -1.5377809
H -0.3897401 1.8528146 -0.035951402
H 1.369184 0.8281525 1.3071101
H 2.2933815 1.5014702 -0.06601666
H 1.7529942 -1.4619863 0.65672237
