19

C 2.7655647 -0.26165816 0.34090826
C 1.5896182 0.61385524 -0.0944917
C 0.30504638 0.32292145 0.6232776
C -1.888262 0.6573625 -1.3858113
C -2.1693792 0.19178982 -0.115112446
C -1.5170987 -1.1589364 0.32069182
O -0.154952 -0.97799015 0.28482762
H 2.9930139 -0.1272848 1.4005392
H 2.5187092 -1.3295567 0.21134676
H 3.6752563 -0.0704087 -0.22972295
H 1.8050188 1.6745083 0.088987425
H 1.4081204 0.53507054 -1.1785674
H 0.3859296 0.50480247 1.7015162
H -0.8914834 0.5112753 -1.7983518
H -2.5732327 1.2608459 -1.96155
H -3.219705 0.2204781 0.20412199
H -1.4542242 0.83177286 0.51717347
H -1.8104259 -1.3821297 1.3662441
H -1.7675143 -2.0167177 -0.29602674
