15

C 1.8222958 0.29107875 0.26105005
C 0.3673615 -0.06919431 0.03775981
C -0.7128608 0.53931373 0.90795904
C -1.9082383 0.21394053 0.0812945
O -1.7925295 0.22673786 -1.1876056
C -0.2241544 -0.36163515 -1.298558
C -0.13722482 -1.4245071 -0.39199388
H 2.1206634 0.027281355 1.287313
H 2.478965 -0.23409936 -0.43300113
H 1.9904199 1.3669493 0.14311118
H -0.6877627 1.6269892 1.0275481
H -0.76962566 0.077141136 1.8962709
H -2.9353857 0.2270376 0.4715615
H 0.050079484 -0.1289298 -2.33057
H 0.3379969 -2.3781037 -0.47213948
