17

O 2.0697384 0.1928495 1.6658888
C 2.5568032 -0.22602983 0.59104663
C 1.7803254 -0.873005 -0.36800775
C 0.05922188 0.3017103 0.9336337
C -0.6778972 0.63417786 -0.29946375
C -1.5403205 -0.36216027 -1.0058384
C -2.195255 0.6901701 -0.13197988
H 3.63196 -0.030723311 0.40557843
H 2.1778522 -0.9959895 -1.3769019
H 1.0211246 -1.5614332 -0.06930559
H 0.2054379 1.1426002 1.5996517
H -0.230382 -0.61004555 1.45897
H -0.27864558 1.4563826 -0.90660167
H -1.6552318 -0.25754264 -2.0814476
H -1.5681841 -1.3715194 -0.6276267
H -2.741876 1.504882 -0.61230665
H -2.614671 0.3656761 0.82471067
