18

C 2.178122 -0.2615685 -1.6124563
C 1.3705904 -0.6447002 -0.4003303
C 1.2158929 0.0977161 0.85042256
N 0.23455018 0.16590431 -0.047788512
C -1.0546634 -0.0062327464 -0.04357182
C -1.9362036 0.9348784 0.703077
O -3.1853933 0.40249923 0.97638625
H 1.7250757 -0.6183856 -2.549375
H 3.1908236 -0.65984625 -1.5536196
H 2.2268136 0.8543136 -1.6955864
H 1.1839827 -1.7231506 -0.31373978
H 1.8133415 0.89166296 1.3221539
H 0.17352763 -0.90956694 1.7203808
H -1.4655758 -0.5752477 -0.8769989
H -0.64278704 -1.1250256 1.4901767
H -1.9563823 1.9034293 0.18459925
H -3.5957344 0.16350146 0.1542421
H -1.4759804 1.1098188 1.6920283
