17

C 2.7283943 -0.6949669 -0.31441504
N 1.2652777 0.73815 -0.51628685
C 0.38572323 -0.14854883 -0.09075663
O 0.90300864 -1.258239 0.19628166
N -0.9462577 0.052445542 0.038068242
C -1.7619686 -0.92619914 0.7216989
C -1.5447109 1.3487841 -0.18267378
H 2.9566128 -1.4893491 0.39848953
H 2.692352 -1.0298126 -1.3394659
H 3.3752785 0.16621159 -0.17219442
H 1.0067817 1.7175217 -0.6393004
H -1.8978246 -0.6742241 1.7749932
H -1.2619922 -1.8971201 0.6628712
H -2.7460847 -1.0004702 0.2255078
H -1.0790092 1.8614633 -1.031785
H -2.6170373 1.2255831 -0.42929244
H -1.458544 2.0087707 0.6982599
