19

C 2.1880798 -0.11124493 1.1336495
C 1.274397 -0.6062571 -0.8999959
C 0.23470533 0.43299666 -0.94715935
C -1.0388558 0.029488739 -1.6871083
C -1.1332015 0.42805275 -0.2720279
C -1.5088841 -0.56700957 0.78141606
O -1.7345849 1.675847 -0.067990355
H 3.0304182 -0.71958476 1.4865774
H 1.2702832 -0.38974297 1.6398553
H 2.4035 0.96756446 1.240991
H 0.8067202 -1.5641729 -0.5541951
H 2.2457175 -0.31839043 -0.0901441
H 0.60365283 1.417242 -1.2102212
H -1.1728532 -1.0218263 -1.9227655
H -1.3866677 0.7150695 -2.4562953
H -2.5935411 -0.688432 0.82142395
H -1.1605322 -0.2310785 1.7681644
H -1.0769876 -1.5561363 0.5868573
H -1.2513658 2.1076143 0.6489681
