16

C 1.8766545 0.004511598 0.61460763
C 0.83897376 -0.22480614 -0.46673137
N -0.059333753 -1.4576195 -0.3878911
C -1.1516111 0.021708194 0.9376824
C -0.58442855 0.23377113 -0.3386593
O -1.4016284 1.7480367 0.060602173
C -1.032528 -0.78685015 -1.3058528
H 2.6331382 -0.7799198 0.56556636
H 2.378073 0.97157156 0.46048987
H 1.4609531 0.00858457 1.6210989
H 1.2516444 -0.046046864 -1.4643285
H -0.5752322 0.17552884 1.8348482
H -2.1567776 -0.3771054 1.033474
H -0.71393496 2.317957 0.4341727
H -0.69490963 -0.67198926 -2.342319
H -2.0690527 -1.1373324 -1.25676
