19

C 3.1815507 0.32637778 0.4233412
C 2.0148654 -0.30772004 -0.28758758
O 0.8436548 -0.12484072 0.4648309
C -0.3122119 -0.6424915 -0.16021192
C -1.5090047 -0.5286426 0.74611545
C -2.7514906 -0.45446914 -0.085149355
C -2.3875191 0.9894161 0.13419798
H 4.1035056 0.20806721 -0.14272118
H 2.9896748 1.3989345 0.5569562
H 3.300423 -0.116086766 1.4104608
H 2.1976938 -1.3934023 -0.42986313
H 1.9075446 0.10971773 -1.3048608
H -0.4262358 -0.21803388 -1.1709821
H -0.19872452 -1.7395334 -0.29822496
H -1.5017401 0.9035334 0.9147446
H -2.6912777 -0.7391982 -1.1438029
H -3.6876612 -0.76920235 0.38128343
H -1.9996235 1.5248531 -0.7450663
H -3.0734227 1.572721 0.73653924
