16

C -1.4023464 -0.3666389 -0.8621772
C -0.5936775 -0.51168156 0.39783424
O -0.46039605 -1.7199744 0.8967155
C 0.64865875 0.39084476 0.5425229
C 1.7548006 -0.19407631 -0.3498518
C 0.35993683 1.7952313 0.20977876
N 0.110683866 2.8997684 -0.053690817
H -1.5870274 0.6792318 -1.1250726
H -2.350594 -0.90997076 -0.76055294
H -0.83385634 -0.83612317 -1.6652939
H -1.452583 0.20208211 1.3335502
H -1.2347138 -0.7356341 1.5216732
H 0.95813257 0.3323185 1.5915756
H 2.708412 0.2969262 -0.13612927
H 1.5252782 -0.06897768 -1.4124508
H 1.849292 -1.253326 -0.12843128
