15

C -1.912406 -0.13109982 -0.10447918
C -0.69072104 0.62940925 0.29311663
O -0.34753388 0.42636842 1.6649686
C 0.81274325 0.293247 0.9376819
C 1.3497051 -0.9581563 0.3905062
C 0.6797254 -0.41251263 -0.8575626
O 1.5538639 0.42681682 -1.5019633
H -1.7702651 -1.1991371 0.048092976
H -2.762374 0.20079626 0.5028028
H -2.1132994 0.034411263 -1.169407
H -0.706122 1.705051 0.045678575
H 1.4572076 1.1767356 0.90983146
H 2.4332817 -0.9915508 0.36570892
H 0.8985843 -1.873911 0.79311216
H 1.1176101 0.67353195 -2.3180883
