16

C 2.2296903 0.98607415 -0.35185394
C -0.09960896 1.4058411 -0.13378839
N 1.71873 -0.14017054 -0.6997731
C 0.88936853 -0.7749987 0.3433466
C -0.41654438 -0.038496472 0.067330055
C -1.7087755 -0.32284957 0.8297789
C -1.5686703 -0.7798179 -0.5750246
H 2.3110573 1.3550938 0.670128
H 2.6940467 1.5913552 -1.1318009
H -0.5137138 1.7194015 -1.1000235
H 1.273931 -0.5612434 1.3520969
H 0.7983206 -1.8454349 0.18202256
H -2.3747075 0.521018 1.0228003
H -1.6720601 -1.0397953 1.6419694
H -1.4432377 -1.8372943 -0.76351
H -2.1178267 -0.23868272 -1.3536985
