17

C -2.0319123 -0.2207543 0.29586336
C -0.6488268 -0.075367235 0.87165517
O -0.06303199 -1.3285207 1.2831819
C 1.2018005 -0.9915595 0.7495664
C 0.7090179 -0.8483682 -1.0654372
C 0.58271927 0.18317318 -0.00976751
C 1.205523 1.5441151 -0.17304333
H -2.4018588 0.7394264 -0.06406589
H -2.0650861 -0.93929964 -0.5310295
H -2.7131112 -0.5906175 1.0788181
H -0.6618732 0.61839944 1.7177606
H 1.4067591 -1.7052442 -0.31748423
H 1.479449 -0.6466948 -1.813115
H -0.15210299 -1.4162964 -1.3877047
H 0.6221968 2.1909978 -0.82980156
H 1.312321 2.0452566 0.794545
H 2.2180169 1.4413536 -0.5999412
