17

C 1.2995738 -0.34917492 1.1126999
C 1.371807 0.74098873 0.073716566
C 1.1627676 -0.7247 -0.325146
C -0.22168761 -0.39189753 -0.875781
C -1.4857204 -0.813779 -0.092169516
C -1.7635003 0.48499432 0.6770279
C -0.024765357 1.0757753 -0.4269334
H 2.2560809 -0.6020386 1.5595447
H 0.43727452 -0.4077048 1.7810084
H 2.2434442 1.3773129 -0.047237992
H 1.8756769 -1.3803048 -0.82176816
H -0.28589186 -0.52525574 -1.9612489
H -1.2753315 -1.669234 0.56775874
H -2.3099368 -1.081327 -0.7636536
H -2.4164848 1.1256686 0.061049193
H -0.67890495 1.250914 0.6101489
H -0.18440115 1.8897623 -1.1290156
