19

C 2.587953 -0.5132418 0.15351827
C 1.3658925 0.2296426 -0.39069116
C 0.4384979 0.5271319 0.7921263
C -1.2689824 1.2386043 -0.37844
C -2.121798 0.039987154 -0.021543413
C -1.1836255 -1.1169953 0.38275203
O -0.24536423 -0.5301778 1.2595387
H 3.061056 0.071629256 0.9593953
H 2.315407 -1.4815142 0.56621116
H 3.3295245 -0.6607384 -0.6371716
H 1.664467 1.1829553 -0.8412306
H 0.8936757 -0.3787134 -1.1732703
H -0.3369356 1.4662012 0.56522727
H -1.7783834 2.1934497 -0.2281325
H -0.8129246 1.2022928 -1.3821014
H -2.744106 -0.26276773 -0.87197846
H -2.7770395 0.26758164 0.8092549
H -1.7034069 -1.9070932 0.9243716
H -0.6839069 -1.5682343 -0.4878359
