17

O 2.9331841 -0.1218806 -1.2252445
C 2.1086085 -0.5630544 -0.18915443
C 0.65827173 -0.264097 -0.41771525
C -1.332919 -0.7772812 0.82154584
C -1.9044349 0.3126757 -0.08688358
C -0.82348937 1.3027171 0.29347444
O 0.37980416 1.0416882 -0.28058526
H 2.8241181 0.82182854 -1.3050483
H 2.4122334 -0.089591086 0.78094125
H 2.2579327 -1.6539054 -0.10656972
H 0.10288197 -0.841147 -1.1349442
H -1.9012272 -0.86575514 1.7531661
H -1.21513 -1.797554 0.41793147
H -2.8886983 0.66723114 0.2355448
H -1.9578208 0.10092153 -1.1654992
H -0.6456058 0.34531125 1.3174847
H -1.0077099 2.3818924 0.29155594
