19

C 2.2129776 -0.031869415 -0.25107697
C 1.1237265 -0.41032726 0.61976594
O 1.3800467 -0.25682238 1.9781716
C -0.11722464 0.70133966 0.2294588
C 0.020851817 0.9135554 -1.2610209
C -1.4793624 0.34832236 0.3082244
C -2.0353308 -0.96376354 -0.09310017
H 1.3553109 0.7182104 -1.1892109
H 2.6227539 -0.7902887 -0.90957004
H 2.8913836 0.72466445 0.12815356
H 0.701537 -1.398082 0.40615553
H 0.5279411 -0.2249006 2.422038
H 0.13423936 1.6185898 0.7690689
H -0.3474244 0.11306479 -1.8985484
H -0.29253358 1.8977511 -1.65503
H -2.1232538 0.9887657 0.92061394
H -1.4079202 -1.4867765 -0.81201595
H -3.0401464 -0.8623269 -0.51196784
H -2.1275718 -1.5991066 0.7998901
