19

C 2.7679598 -0.07851939 0.30334643
C 1.5296785 0.3546135 -0.46310717
C 0.272727 0.06471382 0.36893076
C -1.0363002 0.8864371 -0.53974557
C -2.0618548 0.258178 0.20794377
C -2.1468067 -1.1268454 0.10981026
O -0.0013201695 -1.1911703 0.52272916
H 2.8753896 0.5359291 1.2092093
H 2.6873126 -1.1225342 0.6066017
H 3.6730843 0.042725667 -0.30255878
H 1.5889195 1.4378194 -0.65964836
H 1.4682641 -0.1794431 -1.4042714
H 0.29097074 0.6622991 1.2905867
H -0.9907225 1.9744611 -0.52176744
H -0.87957734 0.5013369 -1.5544006
H -3.1073935 -0.39117718 -0.3838666
H -2.5221448 0.74131984 1.0725273
H -2.594089 -1.7151535 0.90980285
H -1.8140968 -1.6549904 -0.7721225
