19

C 1.9751439 -0.79981923 -0.57153565
C 0.8996073 -0.067703545 0.20541856
O 1.0032347 -0.09417101 1.4848974
C 0.2844418 1.1878864 -0.4128089
C -1.2133044 1.2418894 0.0014983389
C -1.6343195 -0.18411149 0.24335642
C -0.80799454 -1.1254668 -0.3355561
H 2.8815129 -0.16486008 -0.52672
H 1.7219025 -0.9516269 -1.6245838
H 2.196133 -1.7505774 -0.09902588
H -0.27508187 -0.24158992 1.9550791
H 0.8370927 2.0539129 -0.03075958
H 0.390113 1.158398 -1.500129
H -1.3402293 1.8633504 0.892019
H -1.8337382 1.684506 -0.78385025
H -2.6008425 -0.42307976 0.6897476
H -1.1456625 -0.31392848 1.851427
H -0.48662257 -0.8980542 -1.3462226
H -0.85138625 -2.1749542 -0.09225152
