15

C -2.330709 -0.13792464 0.04426157
C -0.8421287 0.052913614 -0.04142086
C -0.18846694 1.2327574 0.018189108
N 1.2246743 0.95574373 -0.13325875
C 1.3477783 -0.5077518 -0.058203544
N 2.6130857 -0.59282315 0.33994097
C 0.100609146 -1.0557534 -0.1384764
H -2.7109122 -0.6471348 -0.8578527
H -2.5961194 -0.7673446 0.9013694
H -2.846896 0.81492436 0.12965606
H -0.56484085 2.2459693 -0.012928232
H 1.5423427 1.2306737 -1.0919513
H 2.3199704 0.7638634 0.46844867
H 3.0826788 -1.4848754 0.45756745
H -0.15106617 -2.1032376 -0.025341516
