17

C 1.6668262 -0.49636298 -0.28984463
C 0.6359209 0.1747133 0.6001787
C 0.07173385 1.6316302 -0.6204851
C -1.0281812 0.8472239 -0.1989018
O -1.4460481 -0.18530157 -0.95994544
C -1.275579 -1.2879515 -0.007971236
C -0.48952907 -0.6290865 1.0582097
H 2.082695 -1.3597331 0.23167144
H 2.471646 0.18731877 -0.56616545
H 1.1986037 -0.8553507 -1.2147175
H 1.0537341 0.7967374 1.3742632
H 0.1697366 2.6291654 -0.18595685
H 0.57153624 1.4180852 -1.554312
H -1.7262112 1.2734997 0.5330755
H -0.7441071 -2.1084664 -0.52675855
H -2.26558 -1.6506487 0.3136523
H -0.9471974 -0.3854724 2.0140078
