19

C -3.1042998 0.7012806 0.033456877
C -2.1672986 -0.041995008 -0.74416083
C -0.790107 -0.2455441 -0.110691726
C 0.29861835 -0.8262614 -0.9777302
C 1.6149824 -0.6010437 -0.33572325
C 2.6049151 -0.34714636 0.3069386
C 3.8244035 -0.042198677 1.0572121
H -3.3335614 0.3868862 1.0572724
H -1.6060693 1.7266074 0.5920348
H -3.8817096 1.2426678 -0.49159688
H -2.3715248 -1.1258872 -0.71909297
H -2.09053 0.25293615 -1.7979238
H -0.8424258 -0.57723004 0.9269682
H -0.8990807 1.5056148 0.49772072
H 0.15280567 -1.8871644 -1.1492734
H 0.2769422 -0.31890914 -1.9716898
H 3.502021 0.47876585 1.9983494
H 4.4524937 0.66104615 0.49975225
H 4.3594255 -0.94242495 1.3281776
