16

C 2.4082878 0.5861497 0.1868431
O 1.0967603 0.7159 0.20333654
C 0.2792197 -0.23695587 0.5696756
C -1.1937522 0.06114444 0.4273508
C -1.5320919 0.73231816 -0.90372866
C -1.9389167 -1.1867992 0.6297944
N -2.5281124 -2.1741843 0.7971761
H 2.9254868 1.4724485 -0.17714112
H 2.0218616 -1.0618209 -0.83397645
H 2.8642652 -0.042177476 0.9624698
H 0.63777643 -0.9451638 1.3245767
H 1.2713536 -1.3311304 -0.73282224
H -1.4901004 0.72208 1.2499801
H -2.5918784 0.9701005 -0.9616599
H -0.9588496 1.6546619 -1.0083776
H -1.2713099 0.06342859 -1.7334973
