15

C 1.8047128 0.66905665 0.4674538
C 0.27581656 -0.12700249 -0.90793943
C -0.949896 -0.103388004 -0.22062011
N -1.3621539 1.0543838 0.28473422
O -0.4930774 2.0016766 0.2184389
C -1.7272501 -1.3483522 0.1485618
H 2.1916094 1.566373 0.96740603
H 1.7453413 -0.16719578 1.1834015
H 2.5147774 0.4319326 -0.33946055
H 0.49402142 0.6846492 -1.5934725
H 0.7100728 -1.0948972 -1.1713086
H 0.62001204 1.4434426 0.2420625
H -2.5777633 -1.0833354 0.7819012
H -2.1344652 -1.8573208 -0.74223554
H -1.1117579 -2.0700228 0.68107694
