15

C -0.9170574 0.8089527 -1.3042346
C -0.8591984 -0.07212244 -0.1746074
O -0.023390451 -1.3445355 -1.0453835
C 0.032347582 0.11185724 1.0194407
O 0.25096956 -1.1357591 1.6380624
C 1.389778 0.72234523 0.6900645
O 2.4130816 0.18106183 1.0368811
H -0.36202547 -0.5168293 -1.7563748
H -1.8641247 1.0170772 -1.771923
H -0.198373 1.6286213 -1.3318249
H -1.7551551 -0.6108641 0.09318768
H -0.23841727 -2.181587 -0.7951083
H -0.471337 0.8455808 1.686876
H 1.206843 -1.174088 1.8068287
H 1.3960589 1.7202893 0.20811537
