16

C -0.531397 -0.012917848 -1.3766407
C -0.73869914 -0.036017284 0.14094484
C -1.2414422 -1.3982551 0.6180442
C 0.52341294 0.2864378 0.8904306
C 1.6816179 0.82733864 0.3846036
C 2.652714 1.0202117 -0.47438642
H -1.4454776 -0.3040283 -1.8932382
H 0.2852512 -0.68893814 -1.6498665
H -0.24526656 1.0083128 -1.7023889
H -1.513928 0.70661753 0.39900887
H -1.4190581 -1.4189702 1.6973529
H -2.1947308 -1.6451066 0.12667504
H -0.5347553 -2.1941078 0.37539706
H 1.323744 1.6328872 1.1611785
H 0.47738713 0.15123072 1.9779357
H 2.9206276 2.0653045 -0.67505056
