16

C 1.5868925 -0.87898964 -0.11703431
C 0.55258715 -0.05373591 0.6068524
N 0.79084057 1.3166686 0.890118
C -0.5233774 1.6508225 0.5229188
O -1.1260768 2.6897416 0.44208834
C -0.89464194 0.18984 0.19300151
C -1.2613952 -0.14711478 -1.243365
H 1.6704522 -0.46935368 -1.1287029
H 1.3205158 -1.9327344 -0.16083162
H 2.5531979 -0.7520835 0.37131858
H 0.40581504 -0.8303586 1.7178392
H 0.6578022 0.066952035 1.836727
H -1.6330647 -0.21434528 0.8931311
H -0.54363596 0.28599456 -1.9520892
H -2.2391102 0.299493 -1.4506518
H -1.3168012 -1.2207967 -1.4213202
