16

C 1.8816825 0.2336132 -0.08648711
C 0.38620764 0.4739689 -0.11145338
C -0.538923 -0.26420367 -1.0084671
C -1.8951137 -0.11517501 -0.8099115
O -1.638961 -0.4734636 1.4045222
C -0.37796316 -0.37447253 1.5498934
H 2.453754 0.9156632 -0.72886986
H 2.2432494 0.35275036 0.9346403
H 2.1037729 -0.7998809 -0.3904141
H 0.072748184 1.4936293 0.12110657
H 0.085137986 0.67564154 -1.4806908
H -0.13729182 -1.1876588 -1.4316678
H -2.588033 -0.848196 -1.2063149
H -2.3129146 0.8219918 -0.47240704
H 0.02335442 0.3961678 2.2104948
H 0.23929353 -1.3003755 1.5060263
