19

C 1.7063391 -1.2716972 0.18475714
C 1.1291891 0.8490745 -0.5876443
C 0.049374387 1.3954556 0.11992137
C -1.3390478 1.1784419 -0.4401517
C -1.6374185 -0.30346373 -0.30837634
C -0.7549871 -0.7573049 0.88499814
O -0.36778274 0.23543091 1.5882667
H 2.2291405 -0.8384771 1.0195601
H 1.5768412 -2.3445146 0.3686263
H 2.2961564 -1.1781358 -0.73737675
H 2.154234 1.1480758 -0.39121616
H 0.9527968 0.4485102 -1.5938482
H 0.24667442 2.222297 0.78871626
H -2.0198328 1.7927959 0.15287678
H -1.4018003 1.5333349 -1.4754618
H -1.3907582 -0.8614646 -1.2139752
H -2.6949427 -0.46727276 -0.07274671
H -1.0902606 -1.6661725 1.4523844
H 0.35608473 -1.1149136 0.26068985
