18

C 2.9205384 0.44619435 -0.17243554
N 1.5198332 0.24561675 -0.36955997
C 0.6915373 -0.03503624 0.57274324
O 0.51858383 -0.24480826 1.726196
C -0.95506114 -0.08640138 -0.4269472
C -1.4594887 -1.4811674 -0.10741231
C -1.7264045 1.0317386 0.24462277
H 3.1855521 1.4774966 -0.39915305
H 3.4945374 -0.2273888 -0.797255
H 3.156361 0.2639272 0.882605
H 0.26081422 0.109367 -0.82408524
H -1.0215045 0.06830713 -1.5181366
H -1.4121674 -1.6626446 0.97121155
H -0.8666143 -2.2584898 -0.5933828
H -2.5027797 -1.5928559 -0.4434958
H -2.7776346 1.0274808 -0.089568876
H -1.7066718 0.9026295 1.3314682
H -1.319431 2.0160344 0.012585418
