17

C 2.6178253 -0.38263053 -0.76568455
N 1.261005 0.09281885 -0.8292682
C 0.44247204 -0.14369744 0.25729465
O 0.79351366 -1.1952158 0.9513982
N -0.91760916 0.04800654 -0.03859467
C -1.8182617 -0.8794742 0.5983625
C -1.396899 1.3936507 -0.1646472
H 3.0901244 -0.20996109 0.20826562
H 2.5701857 -1.4682293 -0.88966054
H 3.1819994 0.04843591 -1.5799282
H 0.88845384 0.82435364 0.680786
H -2.0193737 -0.6264933 1.6526763
H -1.3572863 -1.8677946 0.5831269
H -2.756128 -0.8985096 0.036107484
H -0.7133537 1.932846 -0.8343954
H -2.3843646 1.385451 -0.6442687
H -1.4823036 1.9464434 0.7784297
