16

C -0.033008967 0.11933696 -1.3620608
C -0.86599064 -0.0725784 -0.18327576
C -0.9074948 -1.4282532 0.47347856
C 0.41217837 1.0935564 1.4536395
C 1.437812 0.9920115 0.5623128
C 1.9034684 0.74959964 -0.5520634
H -1.2534446 -0.3346467 -1.45642
H 0.49299264 -0.7335394 -1.7665502
H -0.15067694 1.0105262 -1.9724873
H -1.5890548 0.6906487 0.045230646
H -0.5929123 -1.3909957 1.5174739
H -1.8928293 -1.9117614 0.43461907
H -0.19436973 -2.1223137 -0.024480851
H -0.0016816994 2.1050432 1.6131684
H 0.39506137 0.45865738 2.3389823
H 2.839951 0.77470905 -1.1215668
