16

C -1.8637307 0.01822747 0.83804893
C -1.8136575 0.39878842 -0.6316725
C -0.505535 0.12133466 -1.3059947
C 0.6650062 -0.30899024 -0.7003299
C 1.455312 -0.90893507 0.113135494
C 2.702057 -0.44522882 0.7581227
H -1.6236225 -1.0446 0.958249
H -2.8479059 0.1871166 1.2703608
H -1.1311299 0.5833278 1.4240435
H -2.0305722 1.4792095 -0.7615751
H -2.6047444 -0.08214344 -1.2092699
H -0.4682004 0.31729156 -2.3763428
H 0.9575076 0.71592444 -1.2505448
H 3.5339437 -1.1052656 0.47361055
H 2.9902377 0.6035097 0.55655956
H 2.585035 -0.5295671 1.8435992
