16

C -1.4690503 -1.1960316 -0.69157827
C -0.8074241 0.008668149 -0.054548863
O -1.2514054 0.22337383 1.263029
C 0.71030134 -0.09823932 0.27394423
C 1.7478174 0.3861589 -0.70384586
C 0.44122094 0.75470054 1.4562138
N 0.3709819 1.7282894 2.1321898
H -1.0609616 -1.3696966 -1.6909323
H -2.5404053 -1.0412898 -0.78444535
H -1.29362 -2.0718513 -0.061908316
H -0.9828555 0.9017197 -0.68036515
H -0.80943435 1.3606215 1.8678913
H 0.92003363 -1.1305287 0.5661229
H 2.7605035 0.32121113 -0.29624024
H 1.5638623 1.4313179 -0.9722607
H 1.7004354 -0.2084238 -1.6232662
