19

C 1.5502282 1.2199708 -0.004774639
C 0.67442036 -0.026362063 0.1507019
C 1.4314499 -1.2648857 -0.32761127
C -0.62482965 0.14531828 -0.6022024
C -1.7823802 -0.79132843 -0.3361302
C -2.2030368 0.47829133 0.34871343
O -1.8795781 0.34611353 1.6889453
H 1.0416839 2.1139061 0.37839687
H 2.5002725 1.1087315 0.52666914
H 1.779866 1.4007032 -1.0607138
H 0.41354722 -0.16926289 1.2070099
H 2.3681173 -1.3756746 0.2241887
H 1.6731968 -1.1868278 -1.3904569
H 0.8394591 -2.1762462 -0.1670785
H -0.529378 0.4535496 -1.6376857
H -2.379209 -1.0871081 -1.1980736
H -1.5613579 -1.610781 0.34619954
H -1.2919592 1.2129722 -0.24126118
H -2.0205123 1.2089204 2.0951633
