15

O 0.6385843 -2.6080358 0.48375434
C 0.4259947 -1.4384568 0.23907624
C -0.9723973 -0.9465924 -0.14958066
C -1.2662466 0.47780746 0.32132724
C -0.18941648 1.4396657 -0.11769244
C 1.1401922 0.9640121 -0.07799306
C 1.4609959 -0.40472203 0.24936882
H -1.045534 -0.9851081 -1.2443752
H -1.6904202 -1.6612909 0.25403503
H -2.2575192 0.81867313 0.031312868
H -1.2328178 0.44693536 1.4466957
H 0.94242877 0.46165818 -1.1156492
H -0.4048937 2.4553773 -0.42603627
H 1.9505138 1.6849822 -0.20541057
H 2.5005357 -0.7049055 0.31116727
