16

C -1.5096669 -1.3360223 -0.33268586
C -0.5911045 -0.24956416 -0.86061376
C -0.29326877 0.9776788 0.019970812
C 1.0842099 1.2587696 -0.49857566
C 0.8504982 -0.22283773 -0.37353727
N 1.3284837 -1.0371083 0.5502785
O 2.0424562 -0.43865818 1.42217
H -2.5487132 -0.988286 -0.37295288
H -1.2765987 -1.5924863 0.70280427
H -1.434019 -2.2419424 -0.9490211
H -0.720641 -0.023766201 -1.9228532
H -1.0036503 1.6438155 0.49186862
H 0.14006248 0.5944283 1.5331286
H 1.8258921 1.6680161 0.19346263
H 1.143038 1.6822999 -1.5074475
H 0.9630215 0.30566368 1.9040039
