16

C 1.8521951 0.70038706 0.27243537
O 0.53492093 1.0507587 0.40983868
C -0.28698316 0.38537836 -0.35925275
C 0.5955693 -1.7099557 0.27128744
C -1.7370791 0.47744876 -0.033872467
O -2.43051 1.4485276 -0.77921325
H 2.2327342 0.72627795 -0.7521901
H 2.460377 1.2570859 0.97774035
H 1.4291191 -0.6525806 0.3679924
H 0.014392984 0.16550721 -1.3872077
H 1.4024673 -2.374758 0.59936315
H 0.2609173 -2.0905693 -0.7103127
H -0.22710988 -1.8189954 0.99127173
H -2.209181 -0.4905653 -0.31620878
H -1.8666071 0.6264105 1.0447941
H -2.025223 2.2996418 -0.59646547
