%chk=ts_freq.chk
%nprocshared=4
#P wB97X/6-31G(d) opt(ts,calcall,noeigentest,nomicro,maxcycles=150) freq

ReactOT exact pure Gaussian calcall TS opt+freq: rxn1772

0 1
O   1.80700610  1.31534160 -1.01114560
C   2.02594040  0.61955440 -0.04605688
C   1.00075830 -0.33882820  0.53626865
C  -0.02996681 -0.84445345 -0.45505590
C  -1.39136720 -0.87759966  0.13543555
C  -1.31771210  0.48678318 -0.54685587
H   2.96978140  0.72084904  0.52907260
H   1.52810530 -1.23768480  0.88288105
H   0.61154217  0.15632205  1.45062500
H  -0.31370005  0.41814062 -1.17695710
H  -2.11434150 -1.55786880 -0.30856162
H  -1.49000720 -0.80109410  1.22725430
H  -2.02220540  0.60912090 -1.37348890
H  -1.26383360  1.33141760  0.15658489

