%chk=ts_freq.chk
%nprocshared=4
#P wB97X/6-31G(d) opt(ts,calcall,noeigentest,nomicro,maxcycles=150) freq

GSM eqV2 pure Gaussian calcall TS opt+freq: rxn3233

0 1
C  -1.45586800 -2.06574500  0.15606800
C  -0.84617800 -1.03461800  1.04415700
C  -0.60005700  1.05408000 -0.23404300
N   0.42634100 -1.08142700  1.40877500
C   1.61580200 -1.09268200  0.58988000
C   1.25817200  0.04427500  1.49197200
H  -0.71147700 -2.48151500 -0.52980500
H  -1.89994200 -2.88475000  0.73612800
H  -2.26091900 -1.60712600 -0.42822800
H  -1.49450100 -0.47841000  1.71620500
H  -0.67245100  0.44602000 -1.14300000
H  -0.10170500  1.98667200 -0.53522000
H  -1.60922200  1.32203300  0.09280900
H   1.46893600 -0.93307300 -0.48316700
H   2.35373400 -1.84986700  0.84811400
H   1.77867600  0.29709400  2.41075600
H   0.37259800  0.79841800  0.67839900

