%chk=ts_freq.chk
%nprocshared=4
#P wB97X/6-31G(d) opt(ts,calcfc,noeigentest,nomicro,maxcycles=150) freq

ReactOT exact pure Gaussian calcfc TS opt+freq: rxn4425

0 1
C   1.49323860  0.41486090  0.10523812
C   0.51488477  0.12563966 -1.03297360
N  -0.72788520  0.16215423 -0.25547454
C  -1.53815460 -1.05035760 -0.24874830
C  -0.20498733  0.57446516  1.00247680
O  -0.26637608  1.80673930  1.43829000
H   2.06991840 -0.42332423  0.47894555
H   0.84316593  1.39576640  0.97749877
H   2.18900230  1.23830270 -0.11564061
H   0.67627627 -0.85207975 -1.50839780
H   0.51635855  0.90039290 -1.81111500
H  -0.99823385 -1.96169450 -0.00555723
H  -1.99281600 -1.15890160 -1.24276590
H  -2.34966900 -0.92019330  0.47584766
H  -0.22472264 -0.25177023  1.74237620

