%chk=ts_freq.chk
%mem=6GB
%nprocshared=4
#P opt(ts,calcall,noeigentest,nomicro,maxcycles=150) freq External='../../../../../production/external/horm.sh'

ReactOT exact C eqV2-EFH calcall TS opt+freq: rxn8190

0 1
O   2.93318410 -0.12188060 -1.22524450
C   2.10860850 -0.56305440 -0.18915443
C   0.65827173 -0.26409700 -0.41771525
C  -1.33291900 -0.77728120  0.82154584
C  -1.90443490  0.31267570 -0.08688358
C  -0.82348937  1.30271710  0.29347444
O   0.37980416  1.04168820 -0.28058526
H   2.82411810  0.82182854 -1.30504830
H   2.41223340 -0.08959109  0.78094125
H   2.25793270 -1.65390540 -0.10656972
H   0.10288197 -0.84114700 -1.13494420
H  -1.90122720 -0.86575514  1.75316610
H  -1.21513000 -1.79755400  0.41793147
H  -2.88869830  0.66723114  0.23554480
H  -1.95782080  0.10092153 -1.16549920
H  -0.64560580  0.34531125  1.31748470
H  -1.00770990  2.38189240  0.29155594

