%chk=ts_freq.chk
%nprocshared=4
#P wB97X/6-31G(d) opt(ts,calcfc,noeigentest,nomicro,maxcycles=150) freq

ReactOT exact pure Gaussian calcfc TS opt+freq: rxn6863

0 1
C  -1.49075650  0.06864663  0.77570564
C  -1.32200960 -0.13620122 -0.59565280
O  -0.20419070  0.81097930 -1.30547360
C   0.92893890  0.82342780 -0.71870150
C   1.53336560 -0.40257254 -0.12531605
O   0.67318770 -1.18029800  0.66459530
C  -0.71652067 -1.09834460  0.36040747
H  -0.28490192  1.19949080  1.10674110
H  -2.37644620  0.20277555  1.37943850
H  -1.99632620 -0.29188547 -1.43246640
H   0.40088597  1.61515440  1.00371240
H   1.61504240  1.61513170 -1.06006480
H   1.97844620 -0.99274730 -0.93813235
H   2.36965100 -0.10545258  0.52806250
H  -1.10836610 -2.12810470  0.35714440

