%chk=ts_freq.chk
%nprocshared=4
#P wB97X/6-31G(d) opt(ts,calcall,noeigentest,nomicro,maxcycles=150) freq

GSM eqV2 pure Gaussian calcall TS opt+freq: rxn846

0 1
C  -1.96491000 -0.18824000 -0.32050200
C  -0.68210500 -0.60792400  0.36049500
O  -0.48407200 -1.99690800  0.43910700
C   0.48343500  0.20865700  0.31159100
O   0.24567100  1.37607500  0.82891000
N   1.72397000 -0.17560000 -0.04179600
H  -2.01380600  0.89707300 -0.46484900
H  -2.82577900 -0.50904400  0.27520400
H  -2.06600400 -0.65413800 -1.31581400
H  -0.65863500  0.60032100  1.26187600
H  -0.70045800 -2.37817400 -0.43341600
H   1.81891400 -1.16844200 -0.23443300
H   2.49265700  0.23566700  0.47913900

