%chk=ts_freq.chk
%nprocshared=4
#P wB97X/6-31G(d) opt(ts,calcfc,noeigentest,nomicro,maxcycles=150) freq

GSM eqV2 pure Gaussian calcfc TS opt+freq: rxn6115

0 1
C   2.05299300  0.63801800  1.23167300
C   0.54350200  0.40974800  1.29008800
C  -0.02034400 -0.16956800 -0.00027100
O  -1.03617300 -1.16379200  0.18482000
C  -1.05567200  0.57502100 -0.72491400
C  -1.38244400  0.22017500 -2.12582800
O  -2.52774300  0.51225600  0.98993400
H   2.58614100 -0.29382900  1.01117000
H   2.32016600  1.36703900  0.45691300
H   2.42962800  1.01881600  2.18660800
H   0.29547700 -0.29747800  2.08552900
H   0.02230400  1.34083600  1.53485400
H   0.74548700 -0.58879200 -0.66378300
H  -1.84693000 -0.62041400  0.73575100
H  -1.47533200  1.49546100 -0.34638200
H  -1.06503900 -0.79249200 -2.37960300
H  -2.45147700  0.33288500 -2.32850400
H  -0.85212700  0.94295800 -2.76465000
H  -3.37607400  0.45415900  0.53176700

