%chk=ts_freq.chk
%nprocshared=4
#P Opt=(TS,CalcAll,NoEigenTest,NoMicro,MaxCycles=150) Freq External='../../../../../production/external/horm.sh'

External--CalcAll initial TS guess: rxn1846

0 1
C   1.12713550 -0.48668796 -0.11575118
C   0.74354076  0.32510203  1.07470360
C  -0.29156270  1.19987580 -0.07395270
C  -0.16564244 -0.07163954 -0.83215415
C  -1.29301760 -0.75554680 -0.06581528
N  -0.56931686  0.73491300  1.21366180
H   1.28302130 -1.56511320  0.05482598
H   2.01224800 -0.08288637 -0.62405290
H   1.42676830  0.55025600  1.90083470
H  -0.30888996  2.23982900 -0.36810383
H  -0.19887239 -0.13130204 -1.91673390
H  -1.56819800 -1.79397010 -0.33272710
H  -2.19721410 -0.16283001  0.08526515

