%chk=ts_freq.chk
%nprocshared=4
#P Opt=(TS,CalcAll,NoEigenTest,NoMicro,MaxCycles=150) Freq External='../../../../../production/external/horm.sh'

External--CalcAll initial TS guess: rxn7058

0 1
C   2.64873770 -0.02864775  0.26376730
C   1.47896610  0.27891713  0.19645226
C   0.14219727  0.63807480  0.12178844
C  -0.82508963  1.39022530  0.15241158
O  -2.54611640  0.21560274 -0.21921323
N  -1.98493860 -0.89924353 -0.35259506
C  -0.86080940 -1.33212550 -0.31369957
H   3.68309120 -0.27927467  0.32658103
H  -1.45447580  2.23559210  0.23276938
H  -0.28156240 -2.21912050 -0.40826210

