%chk=ts_freq.chk
%nprocshared=4
#P wB97X/6-31G(d) opt(ts,calcfc,noeigentest,nomicro,maxcycles=150) freq

ReactOT exact pure Gaussian calcfc TS opt+freq: rxn9262

0 1
C   1.80471280  0.66905665  0.46745380
C   0.27581656 -0.12700249 -0.90793943
C  -0.94989600 -0.10338800 -0.22062011
N  -1.36215390  1.05438380  0.28473422
O  -0.49307740  2.00167660  0.21843890
C  -1.72725010 -1.34835220  0.14856180
H   2.19160940  1.56637300  0.96740603
H   1.74534130 -0.16719578  1.18340150
H   2.51477740  0.43193260 -0.33946055
H   0.49402142  0.68464920 -1.59347250
H   0.71007280 -1.09489720 -1.17130860
H   0.62001204  1.44344260  0.24206250
H  -2.57776330 -1.08333540  0.78190120
H  -2.13446520 -1.85732080 -0.74223554
H  -1.11175790 -2.07002280  0.68107694

