%chk=ts_freq.chk
%nprocshared=4
#P Opt=(TS,CalcAll,NoEigenTest,NoMicro,MaxCycles=150) Freq External='../../../../../production/external/horm.sh'

External--CalcAll initial TS guess: rxn1500

0 1
C  -1.34773000  0.16808300  0.10337400
N   0.05383700  0.29516900  0.46481400
C   1.00932100 -0.69742200  0.36761500
C   2.17056500 -0.29571100  0.99957000
N   1.84474200  1.05153900  1.46223600
C   0.61147900  1.35773400  1.05233600
H  -1.42987000 -0.44668900 -0.79541100
H  -1.90947500 -0.30218900  0.91482300
H  -1.76359000  1.15635300 -0.10476700
H   0.75775900 -1.63072400 -0.12082800
H   2.83830900  0.88579000  0.89150900
H   0.08744100  2.29052400  1.21735600

