%chk=ts_freq.chk
%nprocshared=4
#P Opt=(TS,CalcAll,NoEigenTest,NoMicro,MaxCycles=150) Freq External='../../../../../production/external/horm.sh'

External--CalcAll initial TS guess: rxn3675

0 1
C   1.61678300  0.10589300  0.36968800
C   0.40875100  0.24021500 -0.55300500
C  -0.93428100  0.09241600  0.15926800
C  -1.18738000 -1.19352300  0.90955100
C  -2.31955300  1.38309600  0.13027800
O  -1.95645900  0.39674700 -0.78973600
H   1.69135200 -0.89486600  0.80789100
H   1.57208900  0.83391500  1.18936900
H   2.54158200  0.29592500 -0.18349000
H   0.43478200 -0.53065900 -1.33451700
H   0.40405000  1.21111400 -1.05600300
H  -1.10363700 -2.03686900  0.21597500
H  -0.46630000 -1.33013400  1.72159400
H  -2.19250100 -1.20045500  1.34072300
H  -0.93924300  1.03195600  0.83878900
H  -2.90065900  0.84144800  0.92549400

