%chk=ts_freq.chk
%nprocshared=4
#P wB97X/6-31G(d) opt(ts,calcall,noeigentest,nomicro,maxcycles=150) freq

GSM eqV2 pure Gaussian calcall TS opt+freq: rxn4011

0 1
O   2.07716900  0.95364400 -0.12446600
C   2.18010500 -0.33313900 -0.50830400
C   0.16606200 -0.98055100 -0.62176400
C  -0.84273500  0.06237400 -0.97687700
C  -1.76613000  0.62264200  0.02005300
O  -0.62163200  1.35100100 -0.38131400
H   1.31412400  1.15624800  0.45723200
H   1.24850000 -0.75963600 -1.27986600
H   2.30783900 -1.03052200  0.31845900
H  -0.02255100 -1.95154300 -1.08486200
H   0.16499700 -1.14923400  0.46225800
H  -1.13471800  0.10895600 -2.02365300
H  -1.71397600  0.24630900  1.03737700
H  -2.72180000  1.02709800 -0.30215200

