%chk=ts_freq.chk
%nprocshared=4
#P wB97X/6-31G(d) opt(ts,calcall,noeigentest,nomicro,maxcycles=150) freq

ReactOT exact pure Gaussian calcall TS opt+freq: rxn9789

0 1
C  -1.86326000 -0.43328518 -0.53443670
N  -1.37801470  0.43516874  1.06317540
C  -0.41522440 -0.50656784  0.69239223
C   0.75187856  0.15668125  0.25142252
C   2.02317500 -0.44181627 -0.25010678
C   0.36357720  1.49025320  0.35564616
N  -0.90206050  1.64392630  0.79684705
H  -1.53234240  0.32480255 -1.25217640
H  -2.91674260 -0.27717507 -0.28255130
H  -1.66411580 -1.43678800 -0.89086890
H  -0.51398635 -1.52231840  1.06005310
H   2.82460240  0.30035980 -0.24763626
H   1.91653720 -0.83014570 -1.27053240
H   2.34897700 -1.26954590  0.39243870
H   0.95699966  2.36645030  0.11633356

