%chk=ts_freq.chk
%nprocshared=4
#P wB97X/6-31G(d) opt(ts,calcfc,noeigentest,nomicro,maxcycles=150) freq

GSM eqV2 pure Gaussian calcfc TS opt+freq: rxn8931

0 1
C  -1.10941100  0.73020300 -0.10219500
C   0.36547200  0.46169800  0.15457500
O   0.54096200  0.49265500  1.55679800
C   0.76218600 -0.87568500 -0.46844800
O   2.16606700 -0.97276700 -0.90505500
C   3.15066400 -1.04916800 -0.05555500
O   2.87598000 -1.03505000  1.21765400
H  -1.72314000 -0.10473100  0.25467200
H  -1.30279100  0.89055700 -1.16823000
H  -1.41715700  1.61889100  0.45122300
H   0.96782300  1.25591300 -0.32959200
H   1.42180100  0.15847100  1.75781400
H   0.23287000 -1.05700000 -1.40063600
H   0.55161500 -1.70153500  0.22490500
H   3.93646800 -1.52129400  0.83274500

