%chk=ts_freq.chk
%nprocshared=4
#P wB97X/6-31G(d) opt(ts,calcall,noeigentest,nomicro,maxcycles=150) freq

ReactOT exact pure Gaussian calcall TS opt+freq: rxn9513

0 1
C  -0.25406027 -1.49807080 -0.50480950
C  -0.61753930 -0.04062818 -0.44885358
C  -1.08071570  0.54725480  0.88090950
C  -0.40863860  1.92610440  0.87117010
O   0.70877874  1.81176010 -0.03501257
C   0.58870924  0.65349334 -0.75390536
C   1.77389760 -0.90180370 -0.08646911
H  -2.05063180 -1.41957680 -1.13113270
H  -0.02906616 -1.90698460 -1.47315700
H  -0.37101218 -2.17645000  0.32525766
H  -1.62726320 -0.15562002 -1.23204950
H  -0.69520825 -0.04338816  1.72262800
H  -2.17081980  0.59855100  0.96802640
H   0.00770562  2.22282460  1.84672770
H  -1.09233750  2.71947740  0.55042330
H   0.99814580  0.64009450 -1.75825250
H   1.65670340 -0.82288910  0.99615455
H   2.05342340 -1.90710600 -0.35416820
H   2.60992840 -0.24704295 -0.38348716

