%chk=ts_freq.chk
%nprocshared=4
#P wB97X/6-31G(d) opt(ts,calcall,noeigentest,nomicro,maxcycles=150) freq

ReactOT exact pure Gaussian calcall TS opt+freq: rxn4082

0 1
C  -1.82836060  0.32688293 -0.48686972
C  -0.38552850  0.15740196 -0.14010544
C   0.65134170  0.97067290 -0.40038744
C   1.95561290  0.52504950  0.00030701
O   1.47506010 -0.87938520  0.92416220
C   0.09080287 -1.08607920  0.56137610
H  -2.17159410 -0.48076335 -1.15097530
H  -1.99056200  1.28290200 -0.98859060
H  -2.46892290  0.29608557  0.40513688
H   0.55147120  1.92023090 -0.91373646
H   2.46168540  1.12768790  0.76962095
H   2.09336830 -0.88738750  0.03040912
H  -0.46269390 -1.29894950  1.47914700
H   0.02831938 -1.97434870 -0.08949442

