%chk=ts_freq.chk
%nprocshared=4
#P wB97X/6-31G(d) opt(ts,calcall,noeigentest,nomicro,maxcycles=150) freq

GSM eqV2 pure Gaussian calcall TS opt+freq: rxn333

0 1
O   2.35804800 -1.30292500 -0.35594600
C   1.18479400 -0.87227300 -0.56585400
N   1.16991400  0.49921400 -0.58507700
N  -0.15665200  0.75598500 -0.29076400
C  -0.83008800 -0.40755800 -0.39427400
N  -0.05401700 -1.44981500 -0.55446400
H   2.28214800  0.09976500 -0.17030000
H  -0.54325200  1.67274600 -0.46273800
H  -1.91071300 -0.43526800 -0.31885300

