%chk=ts_freq.chk
%nprocshared=4
#P wB97X/6-31G(d) opt(ts,calcfc,noeigentest,nomicro,maxcycles=150) freq

GSM eqV2 pure Gaussian calcfc TS opt+freq: rxn3943

0 1
C   1.76766900  0.21990800  0.43456100
N   0.35510800 -0.08028600  0.55342100
C  -0.41882700 -0.11313100 -0.47128700
C  -1.80353000 -0.60354400 -0.40767900
C  -1.10122100  1.99076700  0.55060700
N  -1.06299600  2.50173200  0.85840800
H   2.17630400 -0.35213600 -0.40608200
H   2.26666600 -0.11739600  1.34256800
H   1.94050100  1.28836000  0.31091700
H  -0.06420300  0.34569100  1.33027200
H   0.05495200 -0.29511300 -1.42549300
H  -2.39145200 -0.20806300 -1.23137300
H  -1.75420000 -1.71546600 -0.49906100
H  -2.30285000 -0.30267200  0.50468300

