%chk=ts_freq.chk
%nprocshared=4
#P wB97X/6-31G(d) opt(ts,calcall,noeigentest,nomicro,maxcycles=150) freq

GSM eqV2 pure Gaussian calcall TS opt+freq: rxn3154

0 1
O   0.67596100  2.25589500  0.27307500
C   0.97350400  1.14890600  0.97257300
C  -0.35602300 -0.15634700  0.29828400
O  -0.96718200  0.40643000 -0.58350900
C   1.41155400 -0.01564800  0.33880800
N   1.08277500 -1.05683200 -0.18017500
H   0.00351400  1.97600400 -0.40043900
H   1.14764400  1.27303800  2.03671500
H  -0.67114000 -0.72497300  1.16859900

