%chk=ts_freq.chk
%nprocshared=4
#P wB97X/6-31G(d) opt(ts,calcfc,noeigentest,nomicro,maxcycles=150) freq

ReactOT exact pure Gaussian calcfc TS opt+freq: rxn7599

0 1
C   2.59838750 -0.67260444 -0.24413380
C   1.22663930 -0.69500965  0.35771516
O   0.28849712 -0.16741578 -0.58923095
C  -0.98809123 -0.35495973 -0.27827110
C  -1.45956680  1.30623600  0.93185997
C  -1.97881450 -0.18279415 -1.31285150
O  -3.12569140  0.20391695 -1.22638480
H   2.86261840  0.35453606 -0.53524065
H   3.34290840 -1.02105900  0.46878204
H   2.63373370 -1.30795910 -1.12965630
H   0.90505580 -1.69322410  0.63287270
H   1.18198970 -0.02904318  1.24303450
H  -1.32391230  0.07437817  0.89746110
H  -2.45637510  1.59079730  0.54727840
H  -1.45824620  1.35847280  2.01848960
H  -0.65486680  1.86708690  0.47598097
H  -1.59426550 -0.63135520 -2.25770520

