%chk=ts_freq.chk
%nprocshared=4
#P wB97X/6-31G(d) opt(ts,calcall,noeigentest,nomicro,maxcycles=150) freq

ReactOT exact pure Gaussian calcall TS opt+freq: rxn5990

0 1
N  -1.74642350  0.46998635 -0.09341434
C  -0.96501243 -0.64461560  0.03743558
O  -1.38078510 -1.78314720  0.13771717
C   0.47601804 -0.35759655  0.04977987
C   1.66128850 -0.23176330  0.07226185
C   3.17246000 -0.17286487  0.10948279
N   2.91915180  0.98093635 -0.03477401
H  -1.38243890  1.40906470 -0.17244077
H  -2.75425840  0.33000016 -0.10604814

