%chk=ts_freq.chk
%nprocshared=4
#P Opt=(TS,CalcAll,NoEigenTest,NoMicro,MaxCycles=150) Freq External='../../../../../production/external/horm.sh'

External--CalcAll initial TS guess: rxn4694

0 1
C   1.53542480  0.51204300 -0.11061792
C   0.35414174 -0.44866040 -0.26009524
C  -0.59547836 -0.47316396  0.92591620
C  -0.78016365 -0.02441724 -1.15005000
C  -1.65371730  0.44132063 -0.18077580
N  -2.38991170  0.89477736  0.66075470
H   2.07402440  0.61375237 -1.06028340
H   2.24872830  0.16477092  0.64878803
H   1.15469490  1.51446570  0.17354895
H   0.65397920 -1.46314480 -0.47927263
H  -0.41692922  0.13961981  1.81562080
H  -1.12917420 -1.40291200  1.11469470
H  -1.05561900 -0.46845126 -2.09822820

