%chk=ts_freq.chk
%nprocshared=4
#P Opt=(TS,CalcAll,NoEigenTest,NoMicro,MaxCycles=150) Freq External='../../../../../production/external/horm.sh'

External--CalcAll initial TS guess: rxn5309

0 1
N   1.77795420 -0.16833656 -0.71345860
C   0.49578404 -0.12551057 -0.25067586
C   0.12973608  0.86897490  0.70653725
N  -1.11528060  1.03508660  1.09504710
C  -1.99851310  0.06465402  0.68397830
N  -1.58262060 -0.88347965 -0.17010692
N  -0.38405937 -0.94119490 -0.78205170
H   2.52444200  0.23186062 -0.18968394
H   2.00753260 -0.99644220 -1.26031800
H   0.88026400  1.52809610  1.12955050
H  -2.73523930 -0.61370850 -0.24881811

