%chk=ts_freq.chk
%nprocshared=4
#P wB97X/6-31G(d) opt(ts,calcfc,noeigentest,nomicro,maxcycles=150) freq

ReactOT exact pure Gaussian calcfc TS opt+freq: rxn6880

0 1
C   2.06071780  0.18370405 -1.43173610
C   0.93010740  0.10973176 -0.47713676
O   1.12426400 -0.67081640  0.51761640
C  -0.49694356 -0.40471670  0.67913640
O  -0.74818680 -1.41365210  1.61911450
C  -1.71980990 -0.19621103 -0.15422718
C  -1.25479140  0.86995470  0.86266900
H   2.82764800 -0.56303513 -1.23505620
H   1.66725290  0.12817548 -2.45468660
H   2.51726150  1.18151150 -1.37150420
H  -0.14032549 -1.23336080  2.36016200
H  -2.58144000 -0.78900750  0.11792339
H  -1.57420610  0.00283998 -1.23049930
H  -0.79000800  1.79323040  0.43171424
H  -1.82154060  1.00165160  1.76651040

