%chk=ts_freq.chk
%nprocshared=4
#P wB97X/6-31G(d) opt(ts,calcfc,noeigentest,nomicro,maxcycles=150) freq

ReactOT exact pure Gaussian calcfc TS opt+freq: rxn3295

0 1
C  -1.15125250  0.37005000 -1.02627040
C   0.15268983  0.77379525 -0.37150730
O   0.06081548  1.95627960  0.28731632
C   0.23416436 -0.82542884  1.37400040
C   1.21680840 -0.70673430  0.45887070
O   1.28592800 -1.59135660 -0.58233020
H  -2.03301530  0.60514206 -0.41704118
H  -1.15991910 -0.70155853 -1.26801060
H  -1.21158490  0.92755306 -1.96752010
H  -0.79497623  2.13113450  0.69640180
H   0.26411578 -0.21411605  2.27724600
H  -0.56868196 -1.53385400  1.22195180
H   2.08379460 -0.09413738  0.65344340
H   1.62111330 -1.09676870 -1.33655060

