%chk=ts_freq.chk
%nprocshared=4
#P wB97X/6-31G(d) opt(ts,calcfc,noeigentest,nomicro,maxcycles=150) freq

ReactOT exact pure Gaussian calcfc TS opt+freq: rxn9543

0 1
C   1.95061340  0.29858738 -0.72689760
C   0.62773440  0.17113320 -0.03102424
C   0.10823710 -1.17588930  0.50678825
C  -1.23030380 -0.97054607 -0.23659058
C  -0.79688483  0.47144163 -0.58893734
C  -0.77881914  1.56096740  0.48287340
O   0.45744812  1.27327750  0.92634004
H   2.76987670  0.11652430 -0.00983256
H   2.03886370 -0.44045520 -1.52867660
H   2.07472180  1.29659280 -1.15286970
H   0.68640137 -2.03925100  0.16642290
H   0.04659019 -1.21178220  1.59750930
H  -2.14896460 -1.07595120  0.34064716
H  -1.29492260 -1.59095800 -1.13912380
H  -0.96941763  0.85602360 -1.59476640
H  -1.86549530  0.78584963  1.67692970
H  -1.67567860  1.67443540  1.31120820

