%chk=ts_freq.chk
%nprocshared=4
#P wB97X/6-31G(d) opt(ts,calcall,noeigentest,nomicro,maxcycles=150) freq

GSM eqV2 pure Gaussian calcall TS opt+freq: rxn8446

0 1
C  -2.18694300 -0.01655400 -0.30403100
C  -0.74271200 -0.22087200  0.01470400
O  -0.24157700 -1.41791900  0.05097800
C   1.31308400 -1.31825700  0.11266600
O   1.90430500 -2.35664200  0.12526100
C   1.53835300  0.06486600  0.15960700
C   0.30246500  0.75320100  0.13837300
H  -2.77911600 -0.84519200  0.09075000
H  -2.55827200  0.92451800  0.10946400
H  -2.30937700  0.00890400 -1.39223800
H  -0.39113100  0.55390100  1.18312300
H   2.51487000  0.49760100  0.31006400
H   0.13457800  1.80787500 -0.06069400

