%chk=ts_freq.chk
%mem=6GB
%nprocshared=4
#P opt(ts,calcall,noeigentest,nomicro,maxcycles=150) freq External='../../../../../production/external/horm.sh'

GSM eqV2 C eqV2-EFH calcall TS opt+freq: rxn5014

0 1
C   1.54611400 -0.21701400 -0.79014000
C   0.85815100 -0.09620900  0.52242600
O   0.58916400  1.94845300  0.20825800
C  -0.40642600  1.49271900  0.91414000
C  -0.49922600 -0.36987500  0.78452000
C  -0.91156700 -0.87060200  2.15256200
C  -1.45418000 -0.72385500 -0.33456900
H   2.29503200  0.56484400 -0.90461200
H   2.04033100 -1.20158000 -0.79101400
H   0.85373800 -0.17560500 -1.63024400
H   1.51585700 -0.00482800  1.38569000
H  -1.44389600  1.74866000  0.59374700
H  -0.32935700  1.50985600  2.02146800
H  -0.17701400 -0.60933300  2.92258900
H  -1.03346000 -1.96141900  2.16147000
H  -1.87498800 -0.43314200  2.44633700
H  -1.50019100 -1.80565700 -0.51625600
H  -1.19333500 -0.22640700 -1.27316800
H  -2.46595700 -0.39242200 -0.07046200

