%chk=ts_freq.chk
%nprocshared=4
#P Opt=(TS,CalcAll,NoEigenTest,NoMicro,MaxCycles=150) Freq External='../../../../../production/external/horm.sh'

External--CalcAll initial TS guess: rxn843

0 1
C  -0.82490000  0.88586600  0.78113300
C  -0.12065600 -0.21043900  0.03063200
O   0.48756900  0.20193200 -1.21425700
C   1.63718700  0.01454200 -0.48443800
C   2.14615800  1.11454200  0.33954300
O   2.34588800  1.12197100  1.53747800
H  -1.28949200  0.47865700  1.68137500
H  -0.14419100  1.68650300  1.08575100
H  -1.60152000  1.31007200  0.14064600
H  -0.74367500 -1.07854700 -0.19597200
H   0.74806600 -0.79399400  0.56878700
H   2.53975200  1.92117000 -0.33119800

