%chk=ts_freq.chk
%nprocshared=4
#P Opt=(TS,CalcAll,NoEigenTest,NoMicro,MaxCycles=150) Freq External='../../../../../production/external/horm.sh'

External--CalcAll initial TS guess: rxn6553

0 1
O  -2.23106860 -1.33004130 -0.22210582
C  -2.02094320 -0.12672615 -0.16489503
C  -0.78507763  0.53393490  0.11564560
C   0.09479064  1.48114750  0.03299607
N   1.12915780  0.77403670 -0.53151320
C   1.57849560 -0.43397558 -0.03393069
N   0.81010383 -1.38857350  0.34347406
H  -2.82838920  0.59485656 -0.40542692
H   0.17772736  2.54921270  0.26075557
H   2.66827460 -0.52467793 -0.12391976
H   1.40692870 -2.12919380  0.72892010

