%chk=ts_freq.chk
%nprocshared=4
#P wB97X/6-31G(d) opt(ts,calcfc,noeigentest,nomicro,maxcycles=150) freq

GSM eqV2 pure Gaussian calcfc TS opt+freq: rxn9705

0 1
O   1.51463400  0.71106100  0.43046400
C   1.47087600 -0.29029400 -0.23367600
C   2.69803700 -1.01973900 -0.77316500
O   2.17266200 -2.13598000 -1.53736400
C   0.86792200 -2.10892500 -1.51464000
C  -0.83670600 -1.30184100  0.20345300
C   0.25312200 -1.05134000 -0.72734900
H   3.32634500 -1.43559000  0.01629400
H   3.29240600 -0.38636000 -1.43369500
H   0.36874500 -2.90423600 -2.06154200
H  -0.75985200 -0.83140500  1.17858400
H  -1.79520900 -1.65439900 -0.15315900
H  -0.06413100 -0.47675600 -1.70593000

