%chk=ts_freq.chk
%nprocshared=4
#P wB97X/6-31G(d) opt(ts,calcall,noeigentest,nomicro,maxcycles=150) freq

GSM eqV2 pure Gaussian calcall TS opt+freq: rxn2337

0 1
C  -1.75994900 -0.31182200  0.14009000
C  -0.32498600  0.10009900  0.24744800
C   0.29446300  1.37475300  0.09467400
N   1.68388400  1.03336700 -0.04165700
C   1.75541100 -0.24657400 -0.08963900
O   0.60916100 -0.92643600  0.09748100
H  -1.97737400 -1.17481200  0.77494500
H  -2.39576800  0.52722200  0.42919200
H  -1.98603800 -0.57531300 -0.89718900
H  -0.14462400  0.78190000  1.27326500
H   2.63939500 -0.85527100 -0.24674600

