%chk=ts_freq.chk
%mem=6GB
%nprocshared=4
#P opt(ts,calcall,noeigentest,nomicro,maxcycles=150) freq External='../../../../../production/external/horm.sh'

ReactOT exact C eqV2-EFH calcall TS opt+freq: rxn4918

0 1
C   3.00357600 -0.35123030  0.26272580
O   1.80418730  0.16395470 -0.26999590
C   0.70210400 -0.42231460  0.37705395
C  -0.58073336  0.10508397 -0.22064476
C  -2.80758290 -0.20821244 -0.58833456
C  -1.06731920  1.36353490  0.12560973
O  -2.25323920  1.63291440 -0.13894747
H   3.09038330 -0.08134786  1.32762040
H   3.81931690  0.14268342 -0.28124437
H   3.07769270 -1.43572580  0.13602816
H   0.74772790 -0.18057966  1.45480430
H   0.71424437 -1.52314530  0.31916000
H  -0.63275135 -0.15627790 -1.27405850
H  -3.55551700  0.33536163 -1.16921820
H  -2.52517600 -1.14513670 -1.08830770
H  -3.11834810 -0.36761870  0.44625640
H  -0.41856483  2.12805630  0.58149254

