%chk=ts_freq.chk
%nprocshared=4
#P wB97X/6-31G(d) opt(ts,calcall,noeigentest,nomicro,maxcycles=150) freq

ReactOT exact pure Gaussian calcall TS opt+freq: rxn3177

0 1
C  -1.29792770 -0.68261915 -0.61807567
C  -0.03893870 -0.00301054 -0.14703093
C   1.07855610 -0.74543256  0.24646042
C   2.31032970 -1.13158970  0.34486112
C  -0.04318779  1.41570300 -0.01511956
C  -0.10413688  2.62173410  0.05711535
H  -1.46662330 -0.42695420 -1.67224680
H  -1.22492850 -1.76768530 -0.51461080
H  -2.18496060 -0.34958014 -0.05909069
H   0.30530313 -1.06524750  1.03892610
H   2.79313280 -1.55511090  1.21685180
H  -0.12661813  3.68979290  0.12195954

