%chk=ts_freq.chk
%nprocshared=4
#P wB97X/6-31G(d) opt(ts,calcall,noeigentest,nomicro,maxcycles=150) freq

GSM eqV2 pure Gaussian calcall TS opt+freq: rxn9928

0 1
C   1.79308500 -0.87163100  0.13363500
C   0.65010800 -0.35771500  0.98017400
N   0.73548400  0.97989000  1.50640500
C  -0.57733800  1.22310400  1.10763500
O  -1.28281500  2.20451300  1.17258300
C  -0.81201700 -0.18354200  0.50291500
C  -1.07728400 -0.27929900 -0.99365700
H   1.65853700 -0.46471600 -0.86842000
H   1.79814500 -1.96556700  0.05910900
H   2.74664100 -0.52643300  0.53490200
H   0.67079500 -1.24192200  1.78981400
H   0.40169700 -0.48918200  2.32102500
H  -1.51740400 -0.80881400  1.06244400
H  -0.36970400  0.32900200 -1.56279800
H  -2.09006900  0.04837400 -1.21241600
H  -0.94128700 -1.31099400 -1.35195300

