%chk=ts_freq.chk
%nprocshared=4
#P wB97X/6-31G(d) opt(ts,calcfc,noeigentest,nomicro,maxcycles=150) freq

GSM eqV2 pure Gaussian calcfc TS opt+freq: rxn9526

0 1
C  -1.71175500 -1.64763800 -0.58273200
C  -0.78971000 -0.62657100 -1.45599500
C  -0.79761400  0.80706200 -0.85946600
C   0.94683800  0.18803400 -1.33679300
C   0.56216700 -1.32514300 -1.11672100
N   0.83060400 -1.97302500 -0.38454300
O   1.07057700 -0.25966600  1.26035400
H  -2.73644100 -1.23837900 -0.51259400
H  -1.28243200 -1.73133600  0.41862600
H  -1.67666000 -2.63281900 -1.06042900
H  -1.04850800 -0.44420300 -2.51483100
H  -1.02206600 -0.15331500 -0.49778600
H  -0.77448400  0.77680600  0.36224400
H   1.64633100  0.97715500 -1.03501400
H   1.00335100 -0.22715200 -2.33473600
H   0.73913000  0.11555000  1.57564400

