%chk=ts_freq.chk
%nprocshared=4
#P wB97X/6-31G(d) opt(ts,calcfc,noeigentest,nomicro,maxcycles=150) freq

ReactOT exact pure Gaussian calcfc TS opt+freq: rxn5760

0 1
C  -1.29584010 -0.23627093  1.29063960
C  -0.80847484 -0.51094764 -0.09163951
N  -0.96514770  1.51532050 -0.81184080
C  -0.06205627  0.48678592 -0.89814540
C   1.47518680  0.49348342 -0.09864451
C   1.62171280 -0.91881200 -0.03381211
O   0.66128993 -1.63945910  0.30371296
H  -0.64771724  0.47914937  1.79555500
H  -2.30474900  0.17601041  1.25732410
H  -1.30990050 -1.17683850  1.85856320
H  -1.41112140 -1.21046820 -0.67440390
H  -1.14682780  1.88992810 -1.75856410
H   0.18103343  0.10183916 -1.90786710
H   1.23021330  0.97124535  0.84473230
H   2.29989550  1.02834220 -0.60117270
H   2.48250370 -1.44930820 -0.47443745

