%chk=ts_freq.chk
%nprocshared=4
#P wB97X/6-31G(d) opt(ts,calcfc,noeigentest,nomicro,maxcycles=150) freq

ReactOT exact pure Gaussian calcfc TS opt+freq: rxn2395

0 1
O  -0.25604334 -1.31523380 -1.07207920
C   0.10397658 -0.23071164 -0.31371403
C   1.12498830 -0.38187070  0.66044796
O   1.73009030  0.73114490  0.79706377
C  -1.03468550  0.65166676  0.02080456
O  -2.08902340  0.51918644 -0.54974330
H  -1.18636820 -1.12590660 -1.33047800
H   1.02366910  0.99616020 -0.21009256
H   1.43735030 -1.27489270  1.19900470
H  -0.85395414  1.43045720  0.79878616

