%chk=ts_freq.chk
%nprocshared=4
#P wB97X/6-31G(d) opt(ts,calcall,noeigentest,nomicro,maxcycles=150) freq

GSM eqV2 pure Gaussian calcall TS opt+freq: rxn4484

0 1
C  -0.82647500 -1.28622600  0.03308000
C  -0.71002300 -0.03010700 -0.57680000
C  -0.89685700  1.22505900  0.19602100
C   2.05864200 -0.09687000 -0.09136500
O   1.71583500 -0.97527300  0.76905400
N   3.33152100 -0.40158200 -0.49463800
H  -0.88567800 -1.21519800  1.12429500
H   0.44001800 -1.37905100 -0.05669700
H  -1.36367500 -2.17791500 -0.28411200
H  -0.70153100  0.07631600 -1.65812700
H  -0.16508400  1.98950700 -0.06723400
H  -1.89829900  1.61622500 -0.05851600
H  -0.86799000  1.04863400  1.27182900
H   3.90565200  0.25663300 -0.99773700
H   3.78019300 -1.18436100 -0.03697800

