%chk=ts_freq.chk
%nprocshared=4
#P Opt=(TS,CalcAll,NoEigenTest,NoMicro,MaxCycles=150) Freq External='../../../../../production/external/horm.sh'

External--CalcAll initial TS guess: rxn5439

0 1
O  -0.92462900 -1.25877200 -0.66178300
C  -1.12697100 -0.44556900  0.47636600
C   0.18598400 -0.12238000  1.17598500
C   0.72187200  1.23561800  0.79111800
O   0.20382300  1.95874700 -0.02689700
C  -2.28092700 -1.01511300  1.29258000
C  -2.15243000  0.59024700  0.27537100
H  -0.83439600 -0.65084900 -1.40923400
H   0.12428200 -0.18182800  2.27108800
H   0.93951900 -0.86398900  0.87881900
H   1.65372800  1.54630200  1.30917200
H  -2.24350300 -0.81939700  2.36108800
H  -2.50174300 -2.04811000  1.02387600
H  -3.17950600 -0.49280900  0.75978300
H  -2.20029000  1.23607800  1.16771600

