%chk=ts_freq.chk
%nprocshared=4
#P wB97X/6-31G(d) opt(ts,calcfc,noeigentest,nomicro,maxcycles=150) freq

GSM eqV2 pure Gaussian calcfc TS opt+freq: rxn397

0 1
C   2.10678000 -0.16903400 -0.08696700
C   0.60284300 -0.31700600 -0.00838700
C  -0.21228000  0.77750900  0.29222700
C  -1.46756100  1.04092900 -0.50106000
C  -2.02282400 -0.21905400 -0.02002200
C  -0.02273900 -1.53585700 -0.24657700
H   2.52047300 -0.92278100 -0.76689000
H   2.42199200  0.82030200 -0.43385800
H   2.56321900 -0.34549600  0.89491000
H   0.13957700  1.57531400  0.95419000
H  -1.97295000  1.92862300 -0.10969100
H  -1.32085900  1.11680700 -1.58094200
H  -2.46512800 -0.21774000  0.97142700
H  -2.39914200 -0.98635700 -0.68466200
H   0.43900900 -2.23294300 -0.95286200
H  -0.69289200 -1.97181800  0.47873800

