%chk=ts_freq.chk
%nprocshared=4
#P wB97X/6-31G(d) opt(ts,calcfc,noeigentest,nomicro,maxcycles=150) freq

ReactOT exact pure Gaussian calcfc TS opt+freq: rxn5584

0 1
O   1.71993460  1.49698100 -1.60359490
C   1.06784890  0.81791234 -0.83097750
C   1.47640820 -0.12908020  0.34533580
N   0.22581998 -0.88130710  0.13076885
C  -1.07067320 -0.67908597  0.81712420
C  -1.33578900  0.58631580 -0.00728174
C  -0.23556165  0.01152249 -0.97111430
H   2.31676080 -0.76694710  0.10957810
H   1.65889110  0.32406860  1.32945380
H  -1.04508910 -0.62043333  1.90023080
H  -1.66806750 -1.57285730  0.54300460
H  -0.30102320  1.15454450  0.57231337
H  -2.33616330  0.76035040 -0.43928190
H  -0.47329688 -0.50198400 -1.89555910

