%chk=ts_freq.chk
%nprocshared=4
#P wB97X/6-31G(d) opt(ts,calcfc,noeigentest,nomicro,maxcycles=150) freq

GSM eqV2 pure Gaussian calcfc TS opt+freq: rxn604

0 1
C  -1.34586800  0.19132000  0.86417800
C  -0.01809800 -0.07612300  0.44289500
O   0.01886100  1.60299700 -0.55810000
C   1.15435600  0.01354800  1.32906600
C   2.15525700 -1.12636000  1.29294300
C   2.52307200  0.21072500  0.74303000
H  -1.50468700  0.44149100  1.91172200
H  -2.15138300 -0.34335000  0.36682100
H  -0.99578000  1.32213600  0.13890500
H   0.12402700 -0.68136100 -0.45360000
H  -0.07617700  1.40120800 -1.50266400
H   0.96480000  0.47408300  2.29552900
H   2.57145500 -1.45403500  2.24061700
H   1.96682500 -1.93012600  0.58513600
H   2.56940800  0.33918900 -0.33413700
H   3.21064900  0.83841900  1.30069400

