%chk=ts_freq.chk
%nprocshared=4
#P Opt=(TS,CalcAll,NoEigenTest,NoMicro,MaxCycles=150) Freq External='../../../../../production/external/horm.sh'

External--CalcAll initial TS guess: rxn4391

0 1
C  -0.88590300  1.34132100  0.24944500
C   0.44477800  1.45464400  0.70204800
C   1.13202900  0.24063200  0.66309700
C   0.36560600 -0.91153600  0.54238300
O  -0.91177700 -0.91125600  1.12501800
C  -1.31032200 -0.05531900  0.10833300
H  -1.89786300  0.87526200  0.89861000
H  -1.40386000  2.11718400 -0.30856500
H   0.90499800  2.41143900  0.92615800
H   2.21639900  0.19833300  0.63712200
H   0.74307400 -1.90331600  0.30362500
H  -1.90435400 -0.45560600 -0.71048300

