%chk=ts_freq.chk
%nprocshared=4
#P wB97X/6-31G(d) opt(ts,calcall,noeigentest,nomicro,maxcycles=150) freq

ReactOT exact pure Gaussian calcall TS opt+freq: rxn5896

0 1
C  -1.75117600  0.74536780 -0.41221490
C  -0.54258730 -0.02458817  0.01418747
C   0.45934564  0.65903306  0.69825550
N   1.81672630  0.53743833  0.14414510
C   1.86413750 -0.71783240  0.39064267
O   2.59968610 -1.62251080  0.60287750
C  -0.29406136 -1.33267240 -0.39092030
H  -1.76046990  0.89045010 -1.50729550
H  -1.82661430  1.72493600  0.06258500
H  -2.67982860  0.20409028 -0.18136235
H   0.30846316  1.51088230  1.35698250
H   2.53806230  1.23703700  0.20700790
H   0.10397671 -2.06976770  0.27365714
H  -0.83566040 -1.74186300 -1.25854750

