%chk=ts_freq.chk
%nprocshared=4
#P wB97X/6-31G(d) opt(ts,calcfc,noeigentest,nomicro,maxcycles=150) freq

GSM eqV2 pure Gaussian calcfc TS opt+freq: rxn8241

0 1
C   1.79093600 -0.87973900  0.29028700
C   0.62311000 -0.73523400 -0.65638600
N  -0.36810800 -1.85259600 -0.69556600
C  -1.11376900 -0.43671600  1.07633300
C  -0.66663000 -0.15080000 -0.22674600
O  -1.11379900  1.43259900  0.24614700
C  -1.39435400 -0.93796900 -1.25049100
H   2.52684700 -1.57733800 -0.12202100
H   2.29201000  0.08557600  0.43909300
H   1.47295400 -1.27194300  1.26323000
H   0.92599200 -0.40684800 -1.66058900
H  -0.44002500 -0.39006300  1.92303500
H  -2.15206600 -0.70333700  1.24854200
H  -0.69137700  1.75550300  1.06099100
H  -1.19227700 -0.61411800 -2.28125800
H  -2.43464300 -1.21633900 -1.08883600

