%chk=ts_freq.chk
%nprocshared=4
#P wB97X/6-31G(d) opt(ts,calcall,noeigentest,nomicro,maxcycles=150) freq

ReactOT exact pure Gaussian calcall TS opt+freq: rxn6094

0 1
N   2.29992750 -0.54576420  0.52162564
C   1.38225340 -0.85317785  1.18006130
C   0.64849126 -0.12610501 -0.42703548
C  -0.66186330 -0.95922650 -0.45262396
N  -1.64676310 -0.16355087  0.29232442
C  -1.10829140  0.97357100  0.50569780
N   0.14319300  1.16741220 -0.07231861
H   1.26232220 -0.13616635 -1.30891000
H  -0.99358606 -1.05694160 -1.49854400
H  -0.51831186 -1.95293700 -0.03485318
H  -1.60234430  1.79361550  1.01410750
H   0.79497254  1.85927080  0.28046870

