%chk=ts_freq.chk
%nprocshared=4
#P wB97X/6-31G(d) opt(ts,calcall,noeigentest,nomicro,maxcycles=150) freq

ReactOT exact pure Gaussian calcall TS opt+freq: rxn8395

0 1
C  -1.91240600 -0.13109982 -0.10447918
C  -0.69072104  0.62940925  0.29311663
O  -0.34753388  0.42636842  1.66496860
C   0.81274325  0.29324700  0.93768190
C   1.34970510 -0.95815630  0.39050620
C   0.67972540 -0.41251263 -0.85756260
O   1.55386390  0.42681682 -1.50196330
H  -1.77026510 -1.19913710  0.04809298
H  -2.76237400  0.20079626  0.50280280
H  -2.11329940  0.03441126 -1.16940700
H  -0.70612200  1.70505100  0.04567857
H   1.45720760  1.17673560  0.90983146
H   2.43328170 -0.99155080  0.36570892
H   0.89858430 -1.87391100  0.79311216
H   1.11761010  0.67353195 -2.31808830

