%chk=ts_freq.chk
%nprocshared=4
#P wB97X/6-31G(d) opt(ts,calcfc,noeigentest,nomicro,maxcycles=150) freq

GSM eqV2 pure Gaussian calcfc TS opt+freq: rxn459

0 1
C   0.22115300  0.22862400 -0.91374900
C  -0.58191900  0.78872300  0.24421600
C  -1.63374600  1.84714400  0.07554800
C  -3.00176400  0.66434000 -0.58001700
O  -2.12407100 -0.11590100 -1.31112500
C  -1.03369800 -0.47716300 -0.50395100
H   0.22607700  0.72821800 -1.87886900
H   1.16368700 -0.23731200 -0.63848700
H  -0.12585000  0.67430700  1.22377300
H  -1.50294000  2.51079400 -0.77265300
H  -1.93117900  2.42673900  1.00977100
H  -3.45899300  1.45637300 -1.18217400
H  -2.72659300  0.95544900  0.19903800
H  -1.07000100 -1.46585300 -0.05698900

