%chk=ts_freq.chk
%nprocshared=4
#P Opt=(TS,CalcAll,NoEigenTest,NoMicro,MaxCycles=150) Freq External='../../../../../production/external/horm.sh'

External--CalcAll initial TS guess: rxn333

0 1
O   2.22213750 -0.44609198 -0.30053893
C   0.94474490 -0.39510030 -0.35250378
N   0.54437110  0.82301205  0.04444493
N  -0.77566120  0.63783485  0.40461633
C  -1.11404130 -0.59200720 -0.04106060
N  -0.08566657 -1.28968440 -0.49746260
H   1.79918400  0.78181285  0.28881213
H  -1.40067080  1.43207750  0.44183096
H  -2.13439750 -0.95185345  0.01186154

