%chk=ts_freq.chk
%nprocshared=4
#P wB97X/6-31G(d) opt(ts,calcfc,noeigentest,nomicro,maxcycles=150) freq

ReactOT exact pure Gaussian calcfc TS opt+freq: rxn3847

0 1
O  -2.10071420 -0.42137215 -0.10089812
C  -0.80413616 -0.09791847  0.00614232
N   0.15144813 -0.99853280  0.11330232
N   1.28083300 -0.31327820  0.08753261
N   1.06510060  1.02757660  0.19837725
C  -0.31048793  1.24676970  0.08237799
H  -2.17289380 -1.38265430 -0.09181321
H   2.14198970 -0.71309185  0.42403957
H   0.74886070  1.65250160 -0.71906070

