%chk=ts_freq.chk
%nprocshared=4
#P wB97X/6-31G(d) opt(ts,calcall,noeigentest,nomicro,maxcycles=150) freq

ReactOT exact pure Gaussian calcall TS opt+freq: rxn160

0 1
C   1.59769520  0.13575584  0.04238807
C   0.49923873  0.43770564 -0.76111865
N  -0.40153740  1.37121750 -0.28794870
C  -1.35694490  0.60571975  0.17213258
C  -1.00799980 -0.77678690 -0.01832445
O  -0.11249284 -0.74959070 -1.08927750
H   0.38111997 -0.60531560  0.81411450
H   2.07758900  0.93868700  0.60238445
H   2.19936850 -0.72659280 -0.21058424
H  -2.21899770  1.00476040  0.70487624
H  -1.65703880 -1.63555990  0.03135762

