%chk=ts_freq.chk
%nprocshared=4
#P wB97X/6-31G(d) opt(ts,calcfc,noeigentest,nomicro,maxcycles=150) freq

GSM eqV2 pure Gaussian calcfc TS opt+freq: rxn2574

0 1
N   2.61679000 -0.47971600 -0.91630400
C   1.31986500 -0.52090700 -0.47967800
O   1.07957200 -0.82799000  0.71615700
N   0.39167200 -0.18686000 -1.38787600
C  -0.98308900 -0.60949300 -1.02674600
C  -0.87767300  0.06601600  0.23018700
H   2.77142000 -0.49951600 -1.91465700
H   3.28992900 -0.96644100 -0.34684100
H  -1.63648600 -0.14192400 -1.76677100
H  -1.14221100 -1.69398000 -1.00207900
H  -0.95856100  1.14711800  0.17971400
H  -0.90973800 -0.37163600  1.21502800

