%chk=ts_freq.chk
%nprocshared=4
#P Opt=(TS,CalcAll,NoEigenTest,NoMicro,MaxCycles=150) Freq External='../../../../../production/external/horm.sh'

External--CalcAll initial TS guess: rxn3339

0 1
O   1.24286960  0.44219312 -0.85372590
C   0.57795274 -0.83456500  0.69295870
C  -0.59254630 -0.07904417  0.69029087
O  -0.14451353  1.12762080  0.91617380
C  -1.44017770  0.02061115 -0.52010703
O  -0.76712390  0.54295180 -1.46400190
H   1.68318200  1.17842070 -0.49710530
H   0.70360875 -1.69129860  0.03700380
H   1.27971030 -0.68674450  1.49820800
H  -2.54296200 -0.02014530 -0.49969518

