%chk=ts_freq.chk
%nprocshared=4
#P wB97X/6-31G(d) opt(ts,calcall,noeigentest,nomicro,maxcycles=150) freq

ReactOT exact pure Gaussian calcall TS opt+freq: rxn843

0 1
C  -1.23447040  0.47967333  0.47607914
C  -0.59763620 -0.76453984 -0.08448535
O  -0.13411832 -0.61245580 -1.43643400
C   1.07687890 -0.77944565 -0.80222434
C   1.75319910  0.44096340 -0.27392890
O   1.91029350  0.72793037  0.88705385
H  -1.41098100  0.34486347  1.55002440
H  -0.60167116  1.35686780  0.33298530
H  -2.20373000  0.65132740 -0.03040984
H  -1.19970880 -1.67758790 -0.01450045
H   0.36268955 -1.11866490  0.49110314
H   2.27925500  0.95106820 -1.09526290

