%chk=ts_freq.chk
%nprocshared=4
#P wB97X/6-31G(d) opt(ts,calcall,noeigentest,nomicro,maxcycles=150) freq

ReactOT exact pure Gaussian calcall TS opt+freq: rxn5630

0 1
C   2.06173350 -0.15166782 -0.57086470
C   0.87774170  0.34442613  0.25294667
O   0.03889430  1.10879080 -0.60599330
C  -1.27913420  1.17885340 -0.03387225
C  -1.82402000 -0.21669242  0.21369222
C   0.04312078 -0.69846020  0.92886040
O  -0.67846900 -1.51439030 -0.12516117
H   2.55208590  0.69409883 -1.06699320
H   1.75751650 -0.85194320 -1.35108170
H   2.79477950 -0.65042220  0.07790754
H   1.25535640  1.02604680  1.03569270
H  -1.90678850  1.70519960 -0.75192744
H  -1.23995030  1.71986320  0.91826450
H  -2.30434010 -0.39908585  1.16805110
H  -2.46079870 -0.56281716 -0.61343175
H   0.62956864 -1.40765620  1.52501560
H  -0.31729588 -1.32414330 -1.00110520

