%chk=ts_freq.chk
%nprocshared=4
#P Opt=(TS,CalcAll,NoEigenTest,NoMicro,MaxCycles=150) Freq External='../../../../../production/external/horm.sh'

External--CalcAll initial TS guess: rxn6639

0 1
N  -1.93070000  0.91440500 -0.00150500
C  -0.65764600  0.28044700 -0.00557500
C  -0.54808000 -1.09822100  0.20570800
O  -1.58632700 -1.94564500  0.35816400
N   0.71665500 -1.53885100  0.18194200
C   1.48305900 -0.35120300 -0.17595900
C   0.62813600  0.75355400 -0.26594600
H  -1.94864500  1.73481300 -0.59687600
H  -2.19321200  1.20581300  0.93531400
H  -2.37756800 -1.41516100  0.16566000
H   1.21835300 -1.37025300 -0.94017400
H   2.55080600 -0.36874700  0.00534500
H   0.91763900  1.76881800 -0.51186600

