%chk=ts_freq.chk
%nprocshared=4
#P wB97X/6-31G(d) opt(ts,calcfc,noeigentest,nomicro,maxcycles=150) freq

ReactOT exact pure Gaussian calcfc TS opt+freq: rxn5803

0 1
C   2.03691960 -0.65108060  0.28094770
O   1.29767790 -0.08945172  1.13460590
C   0.11646915  0.55348130  0.91083395
C  -0.91670890  0.03516231  0.02905891
N  -1.96954970  0.70466760 -0.25659436
O  -1.96780430  1.95041380  0.35116875
C  -0.83537020 -1.32613420 -0.63202730
H   3.01615620 -0.93334544  0.61926013
H   1.56592600 -1.15603110 -0.56227255
H   1.90700500  1.00440450 -0.72453403
H   1.23530880  1.36050780 -0.50282090
H  -0.16629250  1.19849180  1.72676800
H  -2.81099680  2.31269650  0.06893593
H  -0.59125800 -2.10060500  0.08552127
H  -0.10423383 -1.31229280 -1.44288060
H  -1.81324900 -1.55088480 -1.08597080

