%chk=ts_freq.chk
%nprocshared=4
#P Opt=(TS,CalcAll,NoEigenTest,NoMicro,MaxCycles=150) Freq External='../../../../../production/external/horm.sh'

External--CalcAll initial TS guess: rxn59

0 1
C  -1.76027300  0.17827800  0.33354800
C  -0.30177100 -0.02958000 -0.11102000
C   0.65080600  0.28878300  1.02862400
C   2.44078500  0.18562900 -0.29909900
O   2.44479800 -0.30226600 -1.33389800
H  -1.93114600  1.21699900  0.63330900
H  -2.00634800 -0.46416300  1.19444800
H  -2.46774900 -0.05215900 -0.47665600
H  -0.16304100 -1.06548600 -0.44292200
H  -0.09701100  0.60961300 -0.98302700
H   0.53609100  1.31192300  1.37202900
H   0.48393500 -0.37117300  1.88272700
H   2.39384300  0.16393400  1.00149800

