%chk=ts_freq.chk
%nprocshared=4
#P wB97X/6-31G(d) opt(ts,calcall,noeigentest,nomicro,maxcycles=150) freq

GSM eqV2 pure Gaussian calcall TS opt+freq: rxn7241

0 1
O   2.94105100  0.80983300 -0.13847800
C   1.99143800  0.29330800  0.59652900
C   0.68078800  0.99859600  0.28362500
C  -0.35797200 -0.09162500  0.16076100
O  -1.69797400  0.28114300  0.32573700
C  -0.03208000 -1.33642900 -0.62108000
C   0.15664400 -1.29373800  0.87553400
H   3.78497500  0.34380200 -0.00285500
H   1.59570500 -0.59665100  1.42707300
H   0.44854100  1.63149400  1.15534700
H   0.76342300  1.64948800 -0.59773100
H  -2.00057900  0.67575500 -0.50231400
H  -0.89841900 -1.88040500 -0.99632000
H   0.82148300 -1.36342400 -1.30326900
H  -0.56620600 -1.86117900  1.46328200

