%chk=ts_freq.chk
%nprocshared=4
#P Opt=(TS,CalcAll,NoEigenTest,NoMicro,MaxCycles=150) Freq External='../../../../../production/external/horm.sh'

External--CalcAll initial TS guess: rxn4821

0 1
O   1.85811480 -1.26495980 -0.19711836
C   0.87402606 -0.83205307  0.27907968
N   0.58249850  1.06959140  0.24826734
C  -0.58338624  0.72924070 -0.26107973
C  -0.83244340 -0.61554750  0.02575293
O  -0.02533377 -1.04957520  1.19626150
H   0.99872950  1.91138760 -0.16169704
H  -1.20620390  1.32158780 -0.92180170
H  -1.66600120 -1.26967170 -0.20766464

