%chk=ts_freq.chk
%nprocshared=4
#P wB97X/6-31G(d) opt(ts,calcfc,noeigentest,nomicro,maxcycles=150) freq

ReactOT exact pure Gaussian calcfc TS opt+freq: rxn6665

0 1
C  -1.00768550  1.14319870 -0.09235489
C  -0.23938105 -0.16324161  0.04609190
C   1.18611970 -0.14931569 -0.50470710
C   2.05253080  0.78565760  0.22965030
N   2.69367400  1.54351690  0.81901383
C  -0.85131910 -1.69503780  0.89609410
N  -0.97221490 -1.32514050 -0.47187525
H  -0.44968164  1.98223230  0.33322224
H  -1.17403380  1.35348270 -1.15855310
H  -1.97228300  1.07472410  0.41784245
H   1.15221330  0.15191536 -1.56210570
H   1.61046800 -1.15469490 -0.46530110
H  -0.25002230 -0.32134622  1.20359900
H   0.15822607 -2.16781660  0.95899210
H  -1.93661060 -1.05813410 -0.64960870

