%chk=ts_freq.chk
%nprocshared=4
#P wB97X/6-31G(d) opt(ts,calcfc,noeigentest,nomicro,maxcycles=150) freq

GSM eqV2 pure Gaussian calcfc TS opt+freq: rxn4694

0 1
C   0.93864500  1.22519900  0.67929400
C  -0.25971400  0.38090600  0.27909500
C  -1.39821900  0.31693900  1.25068200
C  -1.17929100  0.94562700 -0.79029700
C  -2.19544600  1.46900100  0.00920800
N  -2.91526300  1.82577200  0.90821500
H   1.64787800  1.30212300 -0.15239300
H   1.46573800  0.79059100  1.53814800
H   0.61838600  2.24000300  0.94491100
H   0.06537100 -0.63944900  0.02858500
H  -1.23766800  0.70670400  2.25563200
H  -2.01489000 -0.57253700  1.19667300
H  -1.36048600  0.45636000 -1.73825700

