%chk=ts_freq.chk
%nprocshared=4
#P wB97X/6-31G(d) opt(ts,calcall,noeigentest,nomicro,maxcycles=150) freq

ReactOT exact pure Gaussian calcall TS opt+freq: rxn3596

0 1
O   2.16864320  0.72373230 -0.13215572
C   1.00346650  0.20294677 -0.05846125
N   0.43457620 -1.01950570 -0.00583546
C  -0.94677220 -0.82587760  0.06665006
C  -1.16321070  0.51382613  0.05551584
N   0.06322544  1.15000560 -0.02283793
H   0.92886174 -1.90292700 -0.01873705
H  -1.63767840 -1.65623300  0.11880460
H  -2.10244320  1.05230150  0.09778427
H   1.25133140  1.76173100 -0.10072736

