%chk=ts_freq.chk
%nprocshared=4
#P wB97X/6-31G(d) opt(ts,calcall,noeigentest,nomicro,maxcycles=150) freq

ReactOT exact pure Gaussian calcall TS opt+freq: rxn2673

0 1
C   0.01867474  1.79597340 -0.08473296
C  -0.48088637  0.58121380  0.66942460
C   0.99015370 -0.67367050  0.70145340
O   1.94495130 -1.36579320 -0.08054182
C  -0.36719644 -0.81708664 -0.50188740
C  -1.59221410 -0.07071808 -0.05976082
H  -0.05756003  1.75903640 -1.18917330
H  -0.63270210  2.61358900  0.24214977
H   1.04460330  2.06954670  0.17440909
H   0.67414325 -1.26716230  1.56709730
H   1.57715930  0.18652749  1.01450010
H   1.63847630 -2.25009820 -0.31079286
H  -0.43258277 -1.89760220 -0.35002074
H   0.05196268 -0.52619100 -1.45754770
H  -2.06286290  0.49309766 -0.86978760
H  -2.31412000 -0.63066244  0.53521080

