%chk=ts_freq.chk
%nprocshared=4
#P wB97X/6-31G(d) opt(ts,calcfc,noeigentest,nomicro,maxcycles=150) freq

GSM eqV2 pure Gaussian calcfc TS opt+freq: rxn8103

0 1
C   2.45631200  0.27241600 -0.21120100
O   1.26110100  0.59262400  0.48738200
C   0.63411800 -0.47446400  1.05667300
C  -0.71552500  0.00617900  1.54033100
C  -1.12060400 -0.52584100  0.21274200
C  -1.26179200  0.41354800 -0.95075400
O  -1.27619400 -0.25370100 -2.20071700
H   2.27150300  0.33280500 -1.29018000
H   2.80877900 -0.72647700  0.06434600
H   3.22134800  1.00229300  0.06840100
H   0.10410300 -1.24194000  0.12706700
H  -1.09875500 -0.54138900  2.39979500
H  -0.79628200  1.08322200  1.68101300
H  -1.84873100 -1.33550300  0.23402800
H  -2.21713300  0.94502500 -0.89442700
H  -0.46622500  1.17698000 -0.91091100
H  -0.43332000 -0.70647100 -2.30636700

