%chk=ts_freq.chk
%nprocshared=4
#P wB97X/6-31G(d) opt(ts,calcfc,noeigentest,nomicro,maxcycles=150) freq

GSM eqV2 pure Gaussian calcfc TS opt+freq: rxn1595

0 1
C   1.98705700  0.16235800 -0.13866100
C   0.49403200  0.03814600 -0.08017300
C  -0.43464200  0.98525900  0.36200700
C  -1.68916500  0.38073000  0.38320200
C  -1.50580400 -0.92432100 -0.08317100
N  -0.11207000 -1.12622000 -0.41702600
H   2.45034500 -0.08563500  0.82413300
H   2.39641800 -0.51668600 -0.89102400
H   2.28324700  1.18561200 -0.39437300
H  -0.20208000  2.00223600  0.65842600
H  -2.62982000  0.82342300  0.68623500
H  -2.23150900 -1.62412100 -0.47879100
H  -0.65556700 -1.62940500  0.58310100

