%chk=ts_freq.chk
%nprocshared=4
#P wB97X/6-31G(d) opt(ts,calcfc,noeigentest,nomicro,maxcycles=150) freq

ReactOT exact pure Gaussian calcfc TS opt+freq: rxn1595

0 1
C   1.99248770  0.02834380 -0.15773681
C   0.49058010  0.01251248 -0.13389322
C  -0.36951095  1.03904560  0.25508562
C  -1.67060240  0.54535156  0.22676300
C  -1.58191730 -0.78034650 -0.18634316
N  -0.19658078 -1.09900240 -0.47049960
H   2.41625140 -0.18909319  0.82200670
H   2.36507960 -0.71275234 -0.87039540
H   2.36261770  1.01264400 -0.47152653
H  -0.05610236  2.03501820  0.55759120
H  -2.58788780  1.07921390  0.46463620
H  -2.34999780 -1.44052590 -0.55763900
H  -0.81441710 -1.53040930  0.52195100

