%chk=ts_freq.chk
%nprocshared=4
#P Opt=(TS,CalcAll,NoEigenTest,NoMicro,MaxCycles=150) Freq External='../../../../../production/external/horm.sh'

External--CalcAll initial TS guess: rxn3343

0 1
C  -1.50855350  0.43451524  0.52046573
C  -0.53874147  0.78526850 -0.58420090
C   0.94929000  0.82299244 -0.31531078
C   1.35204520 -0.23159671  0.69975686
C  -0.19359595 -1.72430610 -0.11047287
C  -1.12306100 -0.61564650 -0.49558237
H  -1.14548480  0.28733566  1.53588070
H  -2.50701600  0.86398870  0.44911970
H  -0.90060430  1.46488960 -1.34960580
H   1.48336790  0.62628070 -1.25740850
H   1.24178900  1.82029880  0.03833961
H   1.24133100  0.10294561  1.72621310
H   2.37071130 -0.60648286  0.54532070
H   0.67644220 -1.20543700  0.80840970
H   0.46095604 -1.93653510 -0.96159023
H  -1.85887580 -0.88851106 -1.24933460

