%chk=ts_freq.chk
%nprocshared=4
#P wB97X/6-31G(d) opt(ts,calcfc,noeigentest,nomicro,maxcycles=150) freq

GSM eqV2 pure Gaussian calcfc TS opt+freq: rxn2881

0 1
C  -0.71961400  0.27378600  0.49351000
C  -0.08207300 -0.88947900 -0.30520700
O  -0.32446200 -0.13553300 -1.51252500
C   0.00519000  1.00597600 -0.66377100
C   1.49622000  0.82569800 -0.25947200
C   1.40325700 -0.56313000 -0.08303500
H  -1.80524600  0.29967100  0.38170100
H  -0.40300300  0.45128600  1.52518600
H  -0.44375800 -1.91791800 -0.32926200
H  -0.31744900  1.96364500 -1.07064700
H   1.97530700 -0.08682900 -1.10943300
H   2.16740600 -1.21761500  0.33274100

