%chk=ts_freq.chk
%nprocshared=4
#P wB97X/6-31G(d) opt(ts,calcall,noeigentest,nomicro,maxcycles=150) freq

ReactOT exact pure Gaussian calcall TS opt+freq: rxn2932

0 1
C  -1.48698170 -0.05709885  0.88058440
C  -1.88131320  0.26435673 -0.42158177
C  -0.30008510  0.47825292 -1.73773620
C   0.78733766  0.17021567 -0.98057157
C   1.16466080 -0.16557387  0.19207650
C   2.35445550 -0.49585557  1.00963760
H  -1.61165050 -1.07064140  1.24137120
H  -1.47290400  0.69735940  1.65388460
H   0.02247335 -0.16559720  0.75571680
H  -2.22833180  1.27176920 -0.62339160
H  -2.34950180 -0.49418312 -1.03168390
H  -0.58276880 -0.22724047 -2.52572900
H  -0.41720250  1.52052410 -2.04884700
H   3.26390100 -0.45884374  0.38004303
H   2.47214630  0.22946322  1.82038860
H   2.26576520 -1.49690710  1.43583890

