%chk=ts_freq.chk
%nprocshared=4
#P wB97X/6-31G(d) opt(ts,calcall,noeigentest,nomicro,maxcycles=150) freq

ReactOT exact pure Gaussian calcall TS opt+freq: rxn2306

0 1
N  -1.23689950  0.81730473 -0.28349830
C  -0.56287760 -0.09871569  0.40019146
O  -0.94838786 -0.54486316  1.53213980
C   0.71502520 -0.70110270  0.08188460
C   1.67909620  0.05396096 -0.66450566
N   2.43509900  0.69117755 -1.27193990
H  -2.01432100  1.30651440  0.15220050
H  -0.88294200  1.16055020 -1.16731800
H   0.22719653 -0.95522790  1.48048800
H   0.58901100 -1.72959840 -0.25964254

