%chk=ts_freq.chk
%nprocshared=4
#P wB97X/6-31G(d) opt(ts,calcall,noeigentest,nomicro,maxcycles=150) freq

ReactOT exact pure Gaussian calcall TS opt+freq: rxn143

0 1
C  -1.34342780  0.13294998 -0.98650010
C  -0.65393620 -0.84752804  0.85028917
O  -0.02943654  0.13460020  1.41680560
C   0.85128170  0.82011354  0.56604140
C   1.99776100  0.08662652  0.07820763
O   2.93080850  0.61465380 -0.48117033
H  -1.44508520  1.09055210 -1.50952040
H  -2.35506630 -0.08640676 -0.58739316
H  -1.07286480 -0.63415444 -1.70584990
H  -1.50691180 -1.21772520  1.41776320
H  -0.15179260 -1.53746140  0.18938132
H   1.06489860  1.81541160  0.96182440
H  -0.25434998  0.64876837 -0.44123400
H   1.96812130 -1.02040030  0.23135504

