%chk=ts_freq.chk
%nprocshared=4
#P wB97X/6-31G(d) opt(ts,calcall,noeigentest,nomicro,maxcycles=150) freq

ReactOT exact pure Gaussian calcall TS opt+freq: rxn9439

0 1
C   1.99715100  0.58814400 -0.17678124
C   1.03459290 -0.14013928 -0.89644500
N  -0.72555983 -0.07852027  0.02121085
C  -1.73447370 -1.07727430 -0.19465646
C  -0.77231260  0.69141597  1.03745070
O   0.16398492  1.52901510  1.38548850
H   2.73362470  0.05447192  0.40141174
H   1.05359640  1.19307650  0.76616263
H   2.31470300  1.54197820 -0.60068630
H   1.02858950 -1.22411040 -0.87412906
H   0.59374386  0.28213750 -1.80129720
H  -1.32230970 -2.09510500 -0.05693889
H  -2.11653160 -0.98974323 -1.21970960
H  -2.59814430 -0.93995523  0.51536876
H  -1.65065460  0.66460820  1.69355070

