%chk=ts_freq.chk
%nprocshared=4
#P wB97X/6-31G(d) opt(ts,calcfc,noeigentest,nomicro,maxcycles=150) freq

GSM eqV2 pure Gaussian calcfc TS opt+freq: rxn4091

0 1
C   0.62634200  0.95057800  0.50292800
C   0.27118000 -0.49885200  0.20218400
C  -1.21747400 -0.78134700  0.26291700
O   0.87846200 -1.35386300  1.22231900
C   2.10511000 -1.77643200  1.04888900
O   2.75721200 -1.45264500 -0.01953100
H   0.10293200  1.62259800 -0.18745700
H   0.32572300  1.20492300  1.52540100
H   1.70327100  1.11402800  0.40255500
H   0.68974800 -0.79278700 -0.76384400
H  -1.41858100 -1.84683700  0.11533700
H  -1.73735100 -0.22033100 -0.52044100
H  -1.62430400 -0.48300000  1.23539900
H   3.05791500 -2.46507200  0.58562600

