%chk=ts_freq.chk
%nprocshared=4
#P wB97X/6-31G(d) opt(ts,calcall,noeigentest,nomicro,maxcycles=150) freq

GSM eqV2 pure Gaussian calcall TS opt+freq: rxn4228

0 1
N  -1.02634800  1.60432500  0.99614700
C  -0.99794200  0.30547300  1.02134200
N   0.18524200 -0.25471500  1.21277500
C   1.25494000  0.70105900  0.18370100
O   2.37402000  0.69527400 -0.11127100
H  -1.89573000  1.90286400  0.56818700
H  -1.81885400 -0.32791100  0.67924600
H   0.30790700 -1.20853900  1.53504800
H   0.06597800  1.60041400  0.13431600

