%chk=ts_freq.chk
%nprocshared=4
#P Opt=(TS,CalcAll,NoEigenTest,NoMicro,MaxCycles=150) Freq External='../../../../../production/external/horm.sh'

External--CalcAll initial TS guess: rxn1327

0 1
C   3.11516900 -0.01516300  0.02794600
C   1.95729000  0.23194100  0.46449400
C   0.62596400  0.53342800  0.26165400
C  -0.66320800 -0.23693500  0.41036300
C  -1.23976300  1.16221300  0.69574600
O   0.04339200  1.79151100  0.49369400
H   4.17377100 -0.16321100 -0.02367800
H   1.88021100  0.36629000 -0.75264200
H  -1.03600700 -0.71490800 -0.50111500
H  -0.70605000 -0.94898400  1.23934900
H  -1.59664700  1.31509600  1.71933300
H  -1.98117200  1.53056500 -0.02005700

