%chk=ts_freq.chk
%nprocshared=4
#P wB97X/6-31G(d) opt(ts,calcfc,noeigentest,nomicro,maxcycles=150) freq

GSM eqV2 pure Gaussian calcfc TS opt+freq: rxn6578

0 1
C   1.61474200  0.33766100 -0.38944100
N   0.39272100  0.78687400 -0.17191400
C  -0.46164400 -0.12549200  0.34538900
N  -0.02329800 -1.18795200  0.93918800
C  -1.94802000  0.19849800  0.37073600
O  -2.74758800 -0.61711800  0.79634300
N  -2.25336200  1.40004300 -0.15634700
H   1.77478400 -0.66019800 -0.80939300
H   2.06944600 -0.31955700  1.09019400
H   2.39665400  1.07749600 -0.55463800
H  -0.75574100 -1.73897200  1.38233400
H   1.37086300 -0.89054700  1.14657300
H  -1.51059400  1.99453800 -0.49477000
H  -3.22062000  1.66694500 -0.24598800

