%chk=ts_freq.chk
%mem=6GB
%nprocshared=4
#P Opt=(TS,CalcAll,NoEigenTest,NoMicro,MaxCycles=150) Freq External='../../../../../production/external/horm.sh'

External--CalcAll initial TS guess: rxn7549

0 1
O   0.65189540  0.62837080  1.66860620
C   1.08880150  0.10483138  0.53974235
C   0.35079880 -1.10015880 -0.08475027
C  -1.06316290 -0.64395744 -0.09279152
C  -0.88767320  0.78811413  0.25405120
C   0.11808831  0.86532090 -0.74914820
N  -0.19971453 -0.47540130 -1.32716630
H   2.19042730  0.04575006  0.38517046
H   0.67500280 -2.13847920 -0.08748002
H  -1.93734850 -1.27834050 -0.03591539
H  -1.48914500  1.48045520  0.82686096
H   0.50203010  1.72349480 -1.29717930

