%chk=ts_freq.chk
%nprocshared=4
#P Opt=(TS,CalcAll,NoEigenTest,NoMicro,MaxCycles=150) Freq External='../../../../../production/external/horm.sh'

External--CalcAll initial TS guess: rxn9465

0 1
O   2.43221000  0.91456000 -0.60150200
C   1.88019700 -0.16842000 -0.01757600
C  -0.03754700 -0.06299400 -0.92734000
C  -1.31595600 -0.71068100 -0.37245700
C  -1.97466600  0.68487500 -0.42825200
C  -0.56260600  1.31599500 -0.48840700
H   2.04010800  1.74236900 -0.27542900
H   1.02460600 -0.76765200 -0.64561300
H   1.42679700  0.04826800  0.96309600
H   0.08032400 -0.13320700 -2.01383200
H  -1.17381800 -1.06287300  0.65592500
H  -1.76742000 -1.51274600 -0.96322400
H  -2.50546600  0.82598300 -1.37477900
H  -2.63102500  0.98184000  0.39556400
H  -0.21296700  1.58889800  0.51551400
H  -0.40912200  2.16185800 -1.16510100

