%chk=ts_freq.chk
%nprocshared=4
#P wB97X/6-31G(d) opt(ts,calcall,noeigentest,nomicro,maxcycles=150) freq

ReactOT exact pure Gaussian calcall TS opt+freq: rxn6357

0 1
O   2.17612800 -0.78255120 -0.62327190
C   1.03030430 -0.23080221 -0.13379726
C   0.02485168 -1.17692260  0.50836253
C  -1.38246820 -0.53540385  0.38939524
C  -1.29674140  0.31481847 -0.84242827
C   0.24102391  1.99324640  0.38343525
C   1.23661770  1.13091850  0.42126120
H   1.94671550 -1.53077780 -1.18855040
H   0.11746187  0.27373870 -0.96598774
H   0.31286785 -1.37201000  1.55133000
H   0.03369439 -2.12709160 -0.03231723
H  -1.56276360  0.10953089  1.25569090
H  -2.17706600 -1.28936220  0.32650656
H  -1.42290970 -0.25389072 -1.76956600
H  -1.92491960  1.20709230 -0.85221990
H   0.35474074  2.91842900  0.95751274
H   2.29246300  1.35103810  0.61464405

