%chk=ts_freq.chk
%nprocshared=4
#P Opt=(TS,CalcAll,NoEigenTest,NoMicro,MaxCycles=150) Freq External='../../../../../production/external/horm.sh'

External--CalcAll initial TS guess: rxn2501

0 1
C  -0.01022400  1.12059200 -1.43588900
C   0.31567400  0.07358000 -0.39934200
C   0.50192500 -0.06418300 -2.17316300
N   1.82469800 -0.36986700 -2.09218800
C   2.38808000  0.32046400  0.12509400
C   1.61497100 -0.66245900 -0.70833500
H   0.57303800  2.03649700 -1.44325400
H  -1.07653400  1.27959900 -1.56082600
H  -0.49637000 -0.42337900  0.11788500
H  -0.17262600 -0.66217500 -2.81080400
H   2.06021900  0.57831500  1.16975500
H   2.02010000  1.32320500 -0.17709100
H   1.39671700 -1.63663100 -0.27358800

