%chk=ts_freq.chk
%nprocshared=4
#P wB97X/6-31G(d) opt(ts,calcfc,noeigentest,nomicro,maxcycles=150) freq

ReactOT exact pure Gaussian calcfc TS opt+freq: rxn1783

0 1
C   2.00339410  0.00256717  0.29604378
O   0.76091933 -0.41829702 -0.23433064
C  -0.23311380  0.36409092  0.18453750
C  -1.72508670 -0.43723700 -0.54936730
N  -0.42817040  1.38792840  0.88821510
H   2.21381040  1.04042200  0.01399699
H   1.98293040 -0.03500046  1.39062670
H   2.74924350 -0.67481600 -0.10752615
H  -1.43814000 -0.42028895 -1.60340900
H  -2.73862770 -0.03536827 -0.44447777
H  -1.69525240 -1.46265210 -0.12837979
H  -1.45190680  0.68865130  0.29407054

