%chk=ts_freq.chk
%nprocshared=4
#P Opt=(TS,CalcAll,NoEigenTest,NoMicro,MaxCycles=150) Freq External='../../../../../production/external/horm.sh'

External--CalcAll initial TS guess: rxn5083

0 1
C   2.50109500  0.25078200  0.42349100
C   1.06247900 -0.08628700  0.05716600
C   0.11740400 -0.09298100  1.23503100
O   0.15713100  1.28522100  1.57258400
C   0.26156300  1.05320600 -0.55009700
C  -1.13051900  0.80681600 -0.46791000
C  -1.27235100  0.07627700  0.68865500
H   2.96301100 -0.57950200  0.97171800
H   2.50794900  1.13471600  1.06534900
H   3.10525200  0.44522300 -0.46813700
H   1.04038900 -0.96721300 -0.60599000
H   0.25938000 -0.78434100  2.07529900
H   0.70050000  1.81068200 -1.19878100
H  -1.90116000  1.26001500 -1.07746000
H  -2.18972600 -0.24812400  1.16653000

