%chk=ts_freq.chk
%nprocshared=4
#P wB97X/6-31G(d) opt(ts,calcfc,noeigentest,nomicro,maxcycles=150) freq

GSM eqV2 pure Gaussian calcfc TS opt+freq: rxn9711

0 1
N  -2.39705300 -0.00486700  1.77174600
C  -1.93512200 -1.21843700  2.04850000
O  -0.78595800 -1.69298100  1.55277900
C  -0.00867500 -0.93095600  0.62168100
C   0.85956900  0.09597800  1.35824700
C   1.75376900  0.77657200  0.41619300
N   2.43562000  1.30530200 -0.35381700
H  -2.00847400  0.50518200  0.96070000
H  -3.15940000 -1.02012900  1.80342000
H  -0.64808500 -0.44167500 -0.12241700
H   0.61412600 -1.66249700  0.10555600
H   0.24052900  0.84369400  1.86423000
H   1.46153800 -0.41441600  2.11637100

