%chk=ts_freq.chk
%nprocshared=4
#P Opt=(TS,CalcAll,NoEigenTest,NoMicro,MaxCycles=150) Freq External='../../../../../production/external/horm.sh'

External--CalcAll initial TS guess: rxn1041

0 1
C  -1.13664800 -0.66706710  0.02952071
O   0.04577783 -1.34167650 -0.47361785
C   1.15465030 -0.62207300 -0.29345402
C   0.73092830  0.79808260 -0.02723712
N  -0.11895321  1.35220940 -1.07314780
C  -0.74363490  0.78241310  0.11227775
H  -1.34053870 -1.08801720  1.02043960
H  -1.96503270 -0.89559776 -0.65162444
H   1.54986770 -0.90367250  1.40269000
H   1.94313070 -1.08737990  0.58327174
H   1.37924470  1.49209500  0.49962646
H  -0.17945236  0.72511280 -1.87285780
H  -1.31933950  1.45557070  0.74411260

