%chk=ts_freq.chk
%mem=6GB
%nprocshared=4
#P Opt=(TS,CalcAll,NoEigenTest,NoMicro,MaxCycles=150) Freq External='../../../../../production/external/horm.sh'

External--CalcAll initial TS guess: rxn9446

0 1
C  -0.53139700 -0.01291785 -1.37664070
C  -0.73869914 -0.03601728  0.14094484
C  -1.24144220 -1.39825510  0.61804420
C   0.52341294  0.28643780  0.89043060
C   1.68161790  0.82733864  0.38460360
C   2.65271400  1.02021170 -0.47438642
H  -1.44547760 -0.30402830 -1.89323820
H   0.28525120 -0.68893814 -1.64986650
H  -0.24526656  1.00831280 -1.70238890
H  -1.51392800  0.70661753  0.39900887
H  -1.41905810 -1.41897020  1.69735290
H  -2.19473080 -1.64510660  0.12667504
H  -0.53475530 -2.19410780  0.37539706
H   1.32374400  1.63288720  1.16117850
H   0.47738713  0.15123072  1.97793570
H   2.92062760  2.06530450 -0.67505056

