%chk=ts_freq.chk
%nprocshared=4
#P Opt=(TS,CalcAll,NoEigenTest,NoMicro,MaxCycles=150) Freq External='../../../../../production/external/horm.sh'

External--CalcAll initial TS guess: rxn1204

0 1
C   0.93241500 -0.21673100 -0.46092300
C  -0.49272600  0.23771900 -0.66205100
C  -0.92889500  1.65554700 -0.43402500
C  -1.46693300  0.55990400  0.44228900
C  -2.75068900 -0.13793000  0.02800200
C  -1.36141900 -0.58605800 -1.59266600
H   1.41322000  0.35192000  0.34387900
H   1.52664900 -0.07118200 -1.37058700
H   0.96372200 -1.28072600 -0.20449700
H  -0.21990100  2.32411400  0.04985700
H  -1.58417300  2.13730800 -1.15851600
H  -1.17120700  0.55234800  1.48892700
H  -3.16483500 -0.79762500  0.79811600
H  -3.54493900  0.50497600 -0.35681100
H  -1.90158300  0.08831900 -2.28108500
H  -2.44985400 -0.99392300 -0.73762400

