%chk=ts_freq.chk
%nprocshared=4
#P Opt=(TS,CalcAll,NoEigenTest,NoMicro,MaxCycles=150) Freq External='../../../../../production/external/horm.sh'

External--CalcAll initial TS guess: rxn981

0 1
N  -1.41969300  1.76620600 -0.66169800
C  -0.50951100  0.78465000 -0.53777600
N  -0.14137000 -0.53022600 -0.62790800
O   0.93996200 -1.60340300 -0.26399900
C   2.22717500  0.36251700 -0.45333600
C   1.77547200  1.34942700  0.10269900
H  -1.06056200  2.66519500 -0.97834900
H  -2.08706000  1.85577300  0.10846400
H   2.57139700 -0.52535600 -0.94335900
H   1.34971300  2.25979700  0.52852900

