%chk=ts_freq.chk
%nprocshared=4
#P wB97X/6-31G(d) opt(ts,calcfc,noeigentest,nomicro,maxcycles=150) freq

GSM eqV2 pure Gaussian calcfc TS opt+freq: rxn1488

0 1
C   2.14246500  0.08626100 -0.43066000
C   0.87178400  0.29677600  0.42278400
C  -0.29731800 -0.05913600 -0.45023800
C  -0.88103900 -1.31400300 -0.50040200
C  -2.30020200 -0.15352300  0.20783500
O  -1.72937500  0.87995200  0.71715800
H   2.26811900 -0.96327700 -0.72452700
H   2.10684900  0.68820000 -1.35037900
H   3.00663200  0.39335300  0.14318300
H   0.88715000 -0.33136000  1.31496600
H   0.76111600  1.32498800  0.72470800
H  -0.37006600  0.53126200 -1.35991800
H  -0.48967100 -2.06521000  0.22639000
H  -1.16970600 -1.73480600 -1.45746600
H  -2.95246600 -0.77485300  0.87327100
H  -2.79544400 -0.04421600 -0.79171100

