%chk=ts_freq.chk
%nprocshared=4
#P Opt=(TS,CalcAll,NoEigenTest,NoMicro,MaxCycles=150) Freq External='../../../../../production/external/horm.sh'

External--CalcAll initial TS guess: rxn6722

0 1
C  -1.31033550 -1.24845910  0.38835308
N  -0.05677869 -0.54269410  0.21630462
C   1.22947570 -1.07077840  0.42598826
C   2.23584130 -0.14347246  0.20558886
C   1.41737820  1.01882260 -0.29060254
C   0.03994869  0.73054230 -0.21896002
N  -1.08321510  1.47561680 -0.56318367
H  -1.95263920 -1.08083630 -0.48151967
H  -1.09631110 -2.31377000  0.46371266
H  -1.83032360 -0.91347116  1.28779690
H   1.29209830 -2.10260960  0.75614710
H   2.03741720  0.31243882 -1.07006450
H   1.81479880  2.02300900 -0.43323752
H  -1.85698960  1.42481840  0.10022397
H  -0.88036484  2.43084300 -0.78654754

