%chk=ts_freq.chk
%nprocshared=4
#P wB97X/6-31G(d) opt(ts,calcfc,noeigentest,nomicro,maxcycles=150) freq

ReactOT exact pure Gaussian calcfc TS opt+freq: rxn1847

0 1
C   1.16460800 -0.48103140 -0.13378927
C   0.67311070  0.10477689  1.16312160
C   0.04478988  1.49917390 -0.51287590
C  -0.07367246  0.01802970 -0.90519460
C  -1.19366370 -0.41688454  0.05803289
N  -0.63410540  0.19109651  1.28305630
H   1.30778840 -1.56681420 -0.05792225
H   2.07349850 -0.00280315 -0.47791535
H   1.29707630  0.44685910  1.98053200
H  -0.98595816  1.89444030 -0.46242326
H  -0.17712833 -0.21146901 -1.95926150
H  -1.33363620 -1.50296160  0.19600025
H  -2.16270760  0.02758773 -0.17136084

