%chk=ts_freq.chk
%nprocshared=4
#P wB97X/6-31G(d) opt(ts,calcfc,noeigentest,nomicro,maxcycles=150) freq

ReactOT exact pure Gaussian calcfc TS opt+freq: rxn7681

0 1
C  -1.72701190  0.05469075 -0.08814044
C  -0.54861340 -0.48632180 -0.82947760
O  -0.61255900 -1.39116130 -1.64042630
C   0.82022417  0.21169977 -0.56508243
O   0.78355706  1.48176180 -0.03631043
C   1.57801850 -0.36608815  0.57079300
O   1.24493870 -0.01587023  1.76567330
H  -1.60295220  0.01085016  1.00108770
H  -1.84229860  1.12148540 -0.32703400
H  -2.63635600 -0.48646840 -0.36831543
H   1.41862420  0.06258743 -1.48306830
H   0.63817860  0.77675830  1.49406220
H   2.48625000 -0.97392370  0.50623880

