%chk=ts_freq.chk
%nprocshared=4
#P Opt=(TS,CalcAll,NoEigenTest,NoMicro,MaxCycles=150) Freq External='../../../../../production/external/horm.sh'

External--CalcAll initial TS guess: rxn4767

0 1
C  -2.09760700 -0.15908200 -0.13594600
C  -1.65078700  1.14160200 -0.36890300
C  -1.29928400  2.12796600  0.78934300
C  -0.21222800  1.33257300  0.27031500
C   0.31998100  0.08553900  1.00385500
O   1.55690000  0.12783200  1.28960100
H  -2.17489500 -0.55835200  0.87093500
H  -2.55767700 -0.74260700 -0.92821900
H  -0.07355900 -0.77449100  0.20634800
H  -1.72234600  1.55107000 -1.36918800
H  -1.71122100  1.83637600  1.75054800
H  -1.40062900  3.18236800  0.54402300
H   0.49135200  1.75114200 -0.44937400
H  -0.41003700 -0.13451400  1.84410300

