%chk=ts_freq.chk
%nprocshared=4
#P wB97X/6-31G(d) opt(ts,calcfc,noeigentest,nomicro,maxcycles=150) freq

ReactOT exact pure Gaussian calcfc TS opt+freq: rxn8431

0 1
C  -1.39490940 -0.33560780 -0.85306084
C  -0.79988800  0.03767449  0.36268407
O  -0.55251867 -1.71611680  0.87588750
C   0.62204653  0.54921360  0.48699570
C   1.60763850 -0.01916842 -0.53853240
C   0.55544890  2.03066370  0.39002085
N   0.48672694  3.18281910  0.31640100
H  -0.83333940 -0.17649487 -1.77538100
H  -2.47291830 -0.20008484 -0.96213250
H  -1.12348960 -1.56243310 -0.19739990
H  -1.42970290  0.36681065  1.19390450
H  -1.19922650 -1.96432940  1.56372320
H   0.98735990  0.28921264  1.48470340
H   2.61459300  0.33446983 -0.32861698
H   1.33468400  0.28561452 -1.55713100
H   1.59749450 -1.10224340 -0.46206570

