%chk=ts_freq.chk
%nprocshared=4
#P wB97X/6-31G(d) opt(ts,calcall,noeigentest,nomicro,maxcycles=150) freq

GSM eqV2 pure Gaussian calcall TS opt+freq: rxn1658

0 1
O   1.73703100 -0.88284900  0.55385900
C   0.76561500 -0.21109400  0.80210100
C  -0.20557800  0.25230300 -0.24380200
C  -1.93283200 -0.89117200  0.07846900
O  -2.47325100  0.38423500  0.20260500
C  -1.32187500  1.20841500  0.22348500
H   0.52669700  0.09579800  1.84412300
H   0.33129600  0.51404600 -1.16129000
H  -0.86038900 -0.70634100 -0.72303000
H  -1.47433500 -1.17375600  1.05738000
H  -1.11490500  1.60777200  1.22899200
H  -1.48419900  2.04611600 -0.46048700

