%chk=ts_freq.chk
%nprocshared=4
#P wB97X/6-31G(d) opt(ts,calcall,noeigentest,nomicro,maxcycles=150) freq

ReactOT exact pure Gaussian calcall TS opt+freq: rxn1946

0 1
N  -1.02242760 -1.23116890 -0.35427582
C   0.06317403 -0.66829690 -1.11288730
C  -0.92346210  0.19192225 -0.46991143
C  -0.11502302  0.67605550  1.55930280
N   1.12068430  0.10744818  1.11784670
C   0.70344020  0.34806526 -0.22079152
H  -0.77937675 -1.56533200  0.57913480
H   0.24717426 -0.84976300 -2.16708830
H  -1.61735890  0.89574920 -0.90872663
H   0.00569943  1.75305600  1.30834130
H   1.18174280 -0.87919664  1.36079800
H   1.13573340  1.22146090 -0.69174270

