%chk=ts_freq.chk
%nprocshared=4
#P Opt=(TS,CalcAll,NoEigenTest,NoMicro,MaxCycles=150) Freq External='../../../../../production/external/horm.sh'

External--CalcAll initial TS guess: rxn4939

0 1
C  -0.66415500  2.04306100  0.09382500
C  -0.08878800  0.80382400  0.76299100
C  -0.82325200 -0.50856600  0.38239700
O  -0.09077800 -1.56771800  0.78754800
N   1.28339100  0.56977900  0.28919400
C   1.94151300 -0.57241200  0.45893600
O   2.15832200 -1.21909900  1.56841200
H  -0.09486700  2.95035800  0.32701800
H  -1.69027400  2.18627300  0.44180700
H  -0.70533300  1.92083100 -0.99649600
H  -0.08131200  0.91601100  1.84529500
H  -1.84179800 -0.45612300  0.80352300
H  -0.95095300 -0.46968000 -0.72746100
H   1.19787600 -1.41722600  1.87100800
H   1.56443800  1.11475400 -0.51801800
H   2.68075200 -0.76255300 -0.32378700

