%chk=ts_freq.chk
%nprocshared=4
#P wB97X/6-31G(d) opt(ts,calcall,noeigentest,nomicro,maxcycles=150) freq

ReactOT exact pure Gaussian calcall TS opt+freq: rxn4389

0 1
C  -1.14528680  0.54959893 -0.16878404
C   0.08169105  1.45279260 -0.16948235
C   1.17849470  0.58427680 -0.08288988
C   0.79859555 -0.86193310 -0.03022428
O   0.02281106 -1.15891280  1.13281080
C  -0.66591060 -0.89268863 -0.07383753
H  -1.85985470  0.81443880  0.62524927
H  -1.64687880  0.73907053 -1.12429440
H   0.82347760  1.22225550  0.92995640
H   2.20133230  0.92982530 -0.20147406
H   1.45252570 -1.65101560 -0.37028182
H  -1.24099720 -1.72770830 -0.46674812

