%chk=ts_freq.chk
%nprocshared=4
#P wB97X/6-31G(d) opt(ts,calcfc,noeigentest,nomicro,maxcycles=150) freq

ReactOT exact pure Gaussian calcfc TS opt+freq: rxn1376

0 1
N  -1.74334230  0.11848367 -0.00106476
C  -0.30157983 -0.02858163 -0.00669315
C   0.73507756 -0.93560940 -0.04364948
N   1.82463870 -0.11416448 -0.00103138
N   1.54072450  1.19974880  0.05324507
C   0.20832404  1.27774850  0.05426954
H  -2.23448180 -0.22647856  0.82656455
H  -2.24207300 -0.18327214 -0.83593106
H   0.83187760 -2.00832870 -0.09130946
H   2.79600480 -0.40641156 -0.01763355
H  -1.41517000  1.30686570  0.06323369

