%chk=ts_freq.chk
%nprocshared=4
#P wB97X/6-31G(d) opt(ts,calcall,noeigentest,nomicro,maxcycles=150) freq

ReactOT exact pure Gaussian calcall TS opt+freq: rxn5294

0 1
C  -0.67031276  1.37671040 -0.25566986
C  -0.34136750  0.11926867  0.28057957
C  -1.40397000 -0.93331070  0.50223905
N   0.86728686 -1.36932710 -0.98317400
C   1.13745370 -0.48461148  0.03342249
C   2.09294340  0.59501140 -0.25596803
N   2.86557820  1.42555700 -0.44696155
H  -0.28258005  0.92299014  1.15136970
H  -1.67049470  1.64521290 -0.53889160
H   0.11808032  2.13385560 -0.35005420
H  -1.76145850 -1.33015290 -0.43154390
H  -0.95552900 -1.77458680  1.05515330
H  -2.24337530 -0.54943450  1.10058550
H   0.78818110 -0.80381740 -1.82694800
H   1.45956410 -0.97336560  0.96586170

