%chk=ts_freq.chk
%nprocshared=4
#P Opt=(TS,CalcAll,NoEigenTest,NoMicro,MaxCycles=150) Freq External='../../../../../production/external/horm.sh'

External--CalcAll initial TS guess: rxn31

0 1
O  -2.25135300 -0.85106400  0.23664100
C  -1.99135500 -0.06422100 -0.81899800
C   0.13169200 -0.67688500 -0.88604700
C   0.98769000 -0.37321300  0.32647900
C   0.93911300  1.13772000  0.13131600
C  -0.36372100  1.16378000 -0.71353100
H  -2.06809500 -1.79736300  0.07189100
H  -1.90859200 -0.62888200 -1.76464100
H  -0.33702800 -1.66672100 -0.88205200
H   0.67687800 -0.55971400 -1.82636000
H   1.97924600 -0.84187200  0.31138100
H   0.47090900 -0.67584900  1.24347800
H   0.87466400  1.73008200  1.04809000
H   1.79491900  1.50004000 -0.45155000
H  -1.09408800  1.80638200 -0.23607000
H  -0.25793100  1.51281700 -1.74070900

