11

N                    -2.71861600           0.01575800           0.43713000         
C                    -1.83752000          -0.71992700          -0.21509100         
O                    -2.03743200          -1.35741700          -1.29173900         
C                    -0.40826000          -0.84364600           0.09749900         
C                     0.61465900           0.21853200          -0.61251000         
O                     0.19579200           0.19628700           0.78440000         
H                    -2.42651300           0.48621800           1.28086200         
H                    -3.65578600           0.13737900           0.08127500         
H                    -0.09370600          -1.85593300           0.36915800         
H                    -0.65946400          -1.18748000          -1.27795100         
H                    -0.07627700           0.96096400          -1.08792000         
