11

C                    -1.77569600          -0.98138000           0.04253800         
N                    -1.35634200          -0.11372700           1.04066300         
C                    -0.16231500           0.22972600           1.37119600         
O                     0.86900400          -0.21039400           0.55533500         
C                     2.12094000           0.15746000           0.88418100         
O                     2.42682500           0.81865400           1.83901500         
H                    -2.82268900          -0.87921500          -0.21847000         
H                    -2.02278900          -0.92014500           1.48272100         
H                    -1.07536800          -1.35289400          -0.70274600         
H                     0.08981100           0.76796200           2.27112300         
H                     2.81977500          -0.25233100           0.14249100         
