10

O                    -0.53389300           2.69550600          -0.59771900         
C                    -0.33736300           1.57186200          -0.18641000         
C                    -0.94186500           0.22379600          -0.08812800         
C                     0.20858000          -0.52624800           0.10291800         
O                     1.37458500          -0.30322600          -1.24063400         
C                     1.36899100           0.35540100          -0.14684300         
H                    -1.85260900          -0.16398300          -0.55610400         
H                    -0.58419200           1.23426900           1.02854500         
H                     0.35582000          -1.49894100           0.58581700         
H                     2.30036200           0.70038700           0.32798600         
