13

C                     2.19146900           0.79695100          -0.39035500         
C                     0.81315600           0.60670000          -0.10237800         
C                    -0.15431100           1.67512100          -0.11969800         
C                    -1.45371700           1.05084000          -0.24354300         
C                    -1.27334700          -0.28603000          -0.30880500         
N                     0.10864700          -0.55389900          -0.20398800         
H                     2.81306700          -0.05623400          -0.63966900         
H                     0.93327900           1.45716800          -1.13526700         
H                     2.66699500           1.72149400          -0.08270300         
H                     0.04863000           2.65992700           0.28428500         
H                    -2.40342800           1.56143000          -0.32616800         
H                    -1.97344300          -1.10239100          -0.41487000         
H                     0.53296400          -1.42864200          -0.46449300         
