15

C                    -0.95462500           0.38532900           1.12983400         
C                     0.09617400           0.19073200           0.03663600         
C                    -0.51061400           0.16224900          -1.35834400         
N                     1.11098500           1.25613400           0.11148000         
C                     2.07520100           1.30923600           1.01667700         
O                     2.33863000           0.33225700           1.85752800         
H                    -1.73797500          -0.37480100           1.05687700         
H                    -1.41212100           1.37694700           1.04094200         
H                    -0.48695100           0.30208900           2.11693900         
H                     0.62449100          -0.75162400           0.22222900         
H                     0.25604600           0.02054400          -2.12512100         
H                    -1.04871500           1.09834600          -1.56682300         
H                    -1.24564000          -0.64493000          -1.44334500         
H                     1.05531800           2.01757900          -0.54417500         
H                     3.14492100           1.17269900           1.69763200         
