15

C                    -1.75831600           0.15521000           1.26070400         
C                    -1.29863700          -0.51745200          -1.15674500         
N                    -0.00017900          -0.09087200          -1.03919500         
C                     0.60306200          -0.16920000           0.15325600         
O                    -0.08837500          -0.71124700           1.07595700         
C                     1.90037800           0.54152000           0.40249700         
H                    -2.68657400           0.05009100           0.71285900         
H                    -1.42646500           1.19052000           1.30902100         
H                    -1.80918500          -0.33014300           2.22950800         
H                    -1.50344200          -1.47638000          -0.70147500         
H                    -1.76840600          -0.29161400          -2.10883000         
H                     0.38691200           0.53116200          -1.73699800         
H                     2.37394500           0.85386400          -0.53482000         
H                     2.59983500          -0.10963200           0.93530700         
H                     1.73934800           1.43045800           1.02527300         
