12

C                    -1.63475800           0.40685800          -0.23238100         
N                    -0.26984300           0.76527200           0.14914600         
C                     0.89888600          -0.18129100          -0.15891000         
C                     1.89553400           0.77327500          -0.14114500         
N                     1.50147300           2.09629700          -0.00743800         
C                     0.22023900           2.07193900           0.15942700         
H                    -1.71948200           0.42606800          -1.32021800         
H                    -1.84019500          -0.60452500           0.12145400         
H                    -2.34110900           1.11090500           0.21498600         
H                     0.12610300           0.06653600           0.97831100         
H                     2.95119800           0.55601600          -0.25598200         
H                    -0.42730200           2.92458400           0.32719300         
