12

O                     2.33679100           0.22723200           1.14258600         
N                     1.42498600           1.17724400           0.73511800         
C                     0.27453400           0.67184700           0.58850400         
C                    -1.04432800           1.23444300           0.11228500         
N                    -1.60152000           0.05103500           0.61893900         
C                    -0.42604700          -0.62446300           0.65286900         
H                     3.15917300           0.73073100           1.20642600         
H                    -0.66968600           0.52480500          -1.22861500         
H                    -1.46952500           2.20651900           0.34888100         
H                    -2.52790900          -0.32509000           0.45933500         
H                    -0.32184400          -0.33421000          -1.21550400         
H                    -0.22211000          -1.67244300           0.80574800         
