11

O                     0.33647300           1.98881000          -0.23371100         
C                     0.18727300           0.69697800           0.09351800         
C                    -1.18169700           0.06595700          -0.02520800         
N                    -0.75180200          -1.24383100           0.40373100         
C                     0.41213600          -1.04955500           1.10002200         
O                     1.20651600          -1.81733800           1.58259900         
H                     1.19771200           2.07324900          -0.66717300         
H                     0.31367400           0.25093900           1.58506500         
H                    -1.97065500           0.46932000           0.62338300         
H                    -1.49925000           0.10747500          -1.07682100         
H                    -1.15123200          -2.15836300           0.25547400         
