14

C                    -1.01982300          -0.40603200           0.82689800         
C                     0.32604000           0.27120800           0.92085900         
C                     0.81238000           1.05010700          -0.26687300         
C                     1.72444200          -0.12852500          -0.31305500         
C                     1.43305500          -0.41833500           1.80189400         
O                     0.68234100           0.69996900           2.20902600         
H                    -1.13795300          -1.15989400           1.61115400         
H                    -1.80620900           0.34574800           0.95622000         
H                    -1.15263600          -0.88302500          -0.14895400         
H                     1.27482600           2.00879000          -0.02250900         
H                     0.02087100           1.15446800          -1.01344900         
H                     1.14689100          -0.96835500          -0.74272600         
H                     2.50136900          -0.25950600           1.81320700         
H                     1.09638100          -1.37926000           2.19626800         
