12

O                     0.15498300           1.44707800          -0.51648100         
C                    -0.14462000           0.08577800          -0.68437800         
C                     1.05748600          -0.79606800          -0.99027600         
O                     1.33341800          -0.94054100          -2.42410600         
C                     1.83897600           0.05899300          -3.08545400         
O                     2.17971200           1.15766100          -2.47712900         
H                     0.72143800           1.72861100          -1.24942400         
H                    -0.90907500          -0.09138000          -1.45977700         
H                    -0.57385500          -0.24691500           0.26702700         
H                     0.87336300          -1.82594400          -0.68212500         
H                     1.95218800          -0.41776300          -0.48578800         
H                     2.59952900           0.94630400          -3.57798400         
