12

O                     2.54968600           0.11619900          -0.87371200         
C                     1.49544900          -0.31134400          -0.52186000         
C                     0.86689100          -1.67070400          -0.40973600         
C                    -0.40212300          -1.06944400           0.20387400         
C                    -1.03845400           0.93548300          -0.37386000         
O                     0.49934600           0.42075300           0.08523600         
H                     0.69892300          -2.12548600          -1.39116100         
H                     1.41677000          -2.38083900           0.21427100         
H                    -1.31804900          -1.32696900          -0.30884600         
H                    -0.52465700          -1.09897700           1.28260000         
H                    -1.16038900           1.72818800           0.37070200         
H                    -0.85100200           1.39570800          -1.35305100         
