12

C                    -0.97597700           0.48674000           0.29539500         
C                     0.26817200           0.36933600          -0.53306600         
N                     0.24578500           0.33909400          -1.89525200         
N                     1.56775200           0.57920100           0.04914000         
C                     1.62272500          -0.73126100          -0.55678200         
O                     1.79342700          -0.82165700          -1.82264500         
H                    -1.85205600           0.15043700          -0.26808200         
H                    -1.12285800           1.52819500           0.60945700         
H                    -0.90031400          -0.11317800           1.20903400         
H                     0.61825700           1.17413800          -2.35138100         
H                     2.11549600           1.21201900          -0.54266900         
H                     1.75927500          -1.60532600           0.07875300         
