14

O                     1.71521900          -0.52001200          -0.04255800         
C                     1.23347300           0.67023400          -0.11799600         
C                    -0.53364700           0.49761800           0.96432900         
O                    -0.18281200           1.18241900           2.08788600         
C                    -1.22075100          -0.77819700           0.64627100         
C                    -1.25676900           0.48728000          -0.16625400         
H                     1.00418900          -1.03484900          -0.81453200         
H                     0.80103700           0.90110400          -1.10615600         
H                     1.63529400           1.45152500           0.52214700         
H                     0.34253000           0.57604800           2.63713100         
H                    -2.10689100          -1.03551100           1.23834600         
H                    -0.65601800          -1.63465500           0.28499000         
H                    -0.08966800          -0.49712900          -1.73327900         
H                    -1.90098700           1.06139700          -0.80656100         
