13

C                    -1.64350400          -0.28213500           0.21317600         
N                    -1.52442200           1.10861400           0.53447300         
C                    -0.61457200           0.71249200          -0.51464500         
C                     0.21490900          -0.32608500          -0.04977300         
C                     1.08437100          -0.04448000           1.16759700         
O                     0.22396200          -0.38202900           2.14592300         
H                    -1.36477700          -0.95261600           1.04727300         
H                    -2.45064800          -0.52305600          -0.48022200         
H                    -1.06870700           1.18098800           1.46041200         
H                    -0.58133600           1.44275200          -1.31690800         
H                     0.59054700          -1.07889700          -0.75220800         
H                     1.96728600          -0.72213900           1.09517800         
H                     1.38898600           1.01732900           1.17684400         
