16

C                    -1.22084300          -0.05068500           1.15833800         
C                    -1.88489200           0.09679300          -0.05968400         
C                    -0.55119500           0.39385700          -1.70793600         
C                     0.65524400           0.26871900          -1.08736000         
C                     1.23549400           0.09041200           0.02604900         
C                     2.53841900          -0.19548400           0.68432900         
H                    -1.12944500          -1.04532900           1.59071900         
H                    -1.25673100           0.76292100           1.88144500         
H                     0.18818800           0.13925100           0.73842100         
H                    -2.41638900           1.02123400          -0.26780700         
H                    -2.30565400          -0.78593800          -0.53187400         
H                    -0.90128400          -0.42554500          -2.33316200         
H                    -0.85075800           1.37967500          -2.06378900         
H                     3.23004600          -0.66987600          -0.01763400         
H                     3.01172100           0.71965700           1.05718300         
H                     2.39938600          -0.87150800           1.53383700         
