13

C                     1.22859600          -0.55901400          -0.22513400         
C                    -0.75659900           0.07144700          -0.30850000         
C                    -0.65131500           1.46550700          -0.23930800         
N                    -1.00551700           0.76395400          -1.51264800         
C                    -1.39043700          -1.13933700           0.21030400         
O                    -2.41005500          -1.55558000          -0.28450900         
H                     0.96998100          -1.49718700          -0.72909900         
H                     2.12684000          -0.20574800          -0.74099300         
H                     1.41495200          -0.70910400           0.84223800         
H                    -1.18828300           2.24971000           0.29039500         
H                     0.70078800           0.65845300          -0.34537800         
H                    -2.01451400           0.69920600          -1.70796000         
H                    -0.92977600          -1.62342600           1.09145700         
