13

C                    -1.50387700          -0.34460600          -0.41863000         
N                    -0.89546500          -0.14601000           1.04140200         
C                    -0.82111600           0.74313600           0.96946700         
C                     1.04133800          -0.11789100           0.95827600         
C                     2.58367000          -0.87212200           0.95932600         
C                     2.80322000          -0.86301900          -1.65936100         
H                    -1.36678100          -1.40629300          -0.63449800         
H                    -0.98192300           0.15350700          -1.28601200         
H                    -2.65591200          -0.05433600          -0.40766600         
H                    -1.28696900           1.02495300          -0.13824300         
H                    -1.07685800           1.43755800           1.86928500         
H                     2.54752300          -0.73349100          -1.49027600         
H                     3.40614900          -1.17383600          -2.63615700         
