14

C                     1.69465800           0.30644000          -0.20666800         
N                     1.10892000          -0.93491000           0.35312900         
C                     0.37488100          -0.07563400          -0.73636000         
C                    -0.81896800           0.62529100          -0.21235800         
C                    -1.89343400          -0.08365700           0.51211200         
N                    -0.93551000           0.73446200           1.25394200         
H                     2.58544500           0.12497100          -0.80468200         
H                     1.75702800           1.07170500           0.54888400         
H                     0.68601400          -0.83265500           1.27225300         
H                     0.79787300          -1.43929800          -0.64092700         
H                    -1.12123300           1.47958100          -0.81838600         
H                    -1.81372900          -1.15875100           0.65839800         
H                    -2.91223300           0.28925400           0.39958000         
H                    -1.33798600           1.62625200           1.51955700         
