12

C                     1.38527200          -0.84332100           0.69744000         
N                    -0.51891400          -0.11974300           0.16000200         
C                    -1.71809300          -0.52754200          -0.38716500         
N                    -2.08124000          -1.74529100          -0.32580300         
C                     0.01798500           1.05526000          -0.02005500         
O                     1.23532000           1.16362000           0.24769500         
H                     2.40914600          -0.48868100           0.70982800         
H                     1.19396100          -1.58023100          -0.07334400         
H                     0.97659100          -1.08908400           1.66902600         
H                    -2.29331700           0.26119000          -0.89838800         
H                    -2.97400700          -1.85713800          -0.80317300         
H                    -0.54498600           1.92681200          -0.37588000         
