17

C                    -0.55501400          -1.46931300          -1.38646000         
C                     1.15688400          -0.09145400          -0.01853300         
N                     1.02710000          -0.09859900           0.60750100         
C                     0.70206300           0.04650500           1.66966100         
C                    -0.14204700           0.08944200           0.82609800         
C                     0.53447400           2.18230100           0.51207400         
H                    -0.00846500          -1.21501900          -1.85395800         
H                    -0.52191800          -2.55504300          -1.55400100         
H                    -1.78841500          -1.40439200          -1.50959000         
H                     2.14594700           0.45917100           0.06127800         
H                     1.32839200          -0.14541600          -0.30797900         
H                     1.30252300          -1.07055600           1.52002700         
H                     1.00160800           0.86934000           2.20268400         
H                    -0.87127600          -0.60158300           0.69057100         
H                     0.03221000           2.95094900           1.03759700         
H                     0.52321700           2.66497200          -0.54673700         
H                     1.78923300           2.11732800           0.96541500         
