15

C                     2.34813700          -0.85404100          -0.64263600         
O                     1.44745100          -0.60443400           0.30791600         
C                     0.38528300           0.13249400           0.10366400         
C                    -0.29891400           0.07811000          -1.22628300         
C                    -0.39704900           0.42814300           1.34524900         
H                     2.38438800           0.93978000          -0.75374900         
H                     1.98018500          -1.07053700          -1.64136300         
H                     3.19397600          -1.41530800          -0.26488100         
H                     1.74477900           1.42722500          -0.57673400         
H                    -0.67156700          -0.94222200          -1.41933100         
H                     0.36583500           0.34607100          -2.05314100         
H                    -1.15240100           0.76113700          -1.23842900         
H                    -0.88262500           1.40574600           1.26161600         
H                     0.25971300           0.43019400           2.21822600         
H                    -1.19335800          -0.31407100           1.50896500         
