16

C                    -0.37284100          -1.27959700          -0.42339300         
C                    -1.03289600          -0.48194700           0.70898300         
C                    -1.26277800           0.96917200           0.27786500         
C                    -0.09410000           1.66109200          -0.04198600         
C                     0.81638000           0.95022300          -0.83135300         
C                     0.45530300          -0.32154800          -1.27657800         
H                    -1.14292300          -1.73291000          -1.05752100         
H                     0.23182500          -2.10774600          -0.03474800         
H                    -0.34094300          -0.43134200           1.55747200         
H                    -1.94881000          -0.96655300           1.06122800         
H                    -2.10147200           1.49519800           0.73148100         
H                    -1.55937800           0.63296000          -1.22674500         
H                    -0.01370200           2.73998700           0.06776700         
H                     1.65954300           1.46116600          -1.29005300         
H                     1.07681800          -0.78525500          -2.04261600         
H                    -1.04269900           0.18710700          -1.81862400         
