15

C                     1.76499300          -0.31767000          -0.47283500         
C                     0.36692400          -0.93861000          -0.46783700         
C                    -0.76852200          -0.00489200          -0.80996500         
C                    -2.01737300           0.25391200           0.87816600         
O                    -0.65287700           1.16487100           0.32129700         
H                     1.80271000           0.54553300           0.20068900         
H                     2.03280800           0.02957500          -1.47792300         
H                     2.53113900          -1.03322500          -0.15297700         
H                     0.31310100          -1.74109500          -1.21835600         
H                     0.19190000          -1.43689800           0.49703100         
H                    -0.46916100           0.55422100          -1.71264300         
H                    -2.62323900          -0.52370600           0.42619300         
H                    -1.51568300          -0.10801900           1.77204300         
H                    -2.64780100           1.12164900           1.09000300         
H                    -1.05129600           1.93680100          -0.10871900         
