16

C                     1.30180400           0.44212000           0.80827000         
C                     0.18723800           0.46175000          -0.24471100         
C                    -1.11204900          -0.11744000           0.26878600         
C                    -1.15589100          -1.59710500           0.53543100         
C                    -2.19660200           0.70310500           0.78348200         
O                    -2.28893300           0.44533300          -0.49221800         
H                     1.56798400          -0.57897000           1.10263300         
H                     0.98729200           0.98151400           1.70892400         
H                     2.20775600           0.92005100           0.42240900         
H                     0.49946100          -0.11326600          -1.12901000         
H                     0.00479600           1.49024000          -0.56704400         
H                    -0.86701500          -2.16405700          -0.35650600         
H                    -0.45479100          -1.84674600           1.33876300         
H                    -2.15887400          -1.90732200           0.84614600         
H                    -1.46806900           2.36771300           1.35878700         
H                    -2.26097200           1.65380300           1.52219100         
