10

O                     1.47658800          -0.49300400           0.29601200         
C                     0.25538000           0.06235800           0.38611200         
N                    -0.76100700          -0.67866100          -0.14318100         
C                    -2.06392300          -0.31367400           0.34698400         
C                    -1.93047900           0.92212800           0.06222700         
N                     0.07163200           1.26925300           0.81857500         
H                     1.35633700          -1.36885100          -0.10586000         
H                    -2.78729300          -1.02161100           0.73233500         
H                    -2.28840000           1.87343000          -0.28435900         
H                     0.96721600           1.75132000           0.90283700         
