10

O                     3.00097100          -0.32909300           0.19337000         
C                     1.82651400           0.12588500          -0.27373600         
N                     0.99215600          -0.29567300          -1.36222300         
C                    -0.39971300           0.01979900          -0.33858400         
C                    -0.79437600           2.31446900           0.30362500         
N                    -0.61336300           0.71939200          -0.35145300         
H                     3.19048600          -1.18685300          -0.30059400         
H                    -1.47301100          -0.40486900          -0.28614600         
H                    -1.36798300           3.17826700           0.91286300         
H                     0.73271300          -0.57679800           0.01215600         
