8

N                     1.27002300          -0.68427600           0.03874500         
C                     0.01256600          -0.04442900           0.04198700         
O                    -0.17750500           1.11446500           0.57218400         
N                    -0.66485300           0.19107500          -1.21302700         
H                     1.35385000          -1.41015500          -0.66661200         
H                     2.02768900          -0.02190900          -0.05199800         
H                    -0.81737900          -0.92862800           0.03774800         
H                    -1.59250900           0.50662700          -0.90572000         
