10

O                    -1.79627300          -0.21900200           0.72037400         
C                    -0.95622100          -0.95908700           0.33290600         
O                     0.18736500          -0.47509400          -0.31520400         
C                     0.85690900           1.01355500          -0.37539600         
C                     1.50980400          -0.82859000          -0.15837800         
C                     2.43658400          -1.60880000          -0.06400900         
H                    -0.93583300          -2.05570900           0.36340400         
H                     0.35510000           1.42513600          -1.25659300         
H                     0.44076200           1.46916600           0.53188400         
H                     3.36111100          -2.12234500           0.06709600         
