11

O                     0.83495600          -1.77339100          -0.91090900         
C                     0.70674800          -0.84703800          -0.22337600         
O                    -0.76350800          -1.76540400           1.90841900         
C                    -1.45956400          -1.19306600           1.09335600         
C                    -1.16853800           0.05791000           0.35509200         
C                    -0.10288000           0.90945900           0.74302000         
C                     1.08638900           0.22200400           0.59432200         
H                    -2.43650200          -1.62131500           0.79403500         
H                    -2.04504900           0.46574100          -0.14838900         
H                    -0.18432500           1.93948200           1.07664300         
H                     2.09475000           0.39417000           0.94219900         
