15

C                     2.21103900           0.66402400           1.81177600         
O                     0.95271500           0.64946500           1.14520100         
C                     0.49546200          -0.91127100           0.64671400         
O                     1.30883100          -1.76146300           0.79647000         
C                    -0.88179800          -0.67948600           0.70427500         
C                    -1.59878800           0.42436500          -0.04676100         
O                    -1.66158200          -1.81693800           0.88692000         
H                     2.35346100          -0.23265600           2.42903900         
H                     2.26644400           1.56400100           2.42205100         
H                     2.99561700           0.68892500           1.04963900         
H                    -0.04098100           0.22958500           1.63538600         
H                    -0.98821700           1.32600900          -0.13993800         
H                    -2.51499600           0.68838700           0.49016200         
H                    -1.89101700           0.08114500          -1.04698900         
H                    -1.33462000          -2.52510100           0.31508800         
