15

C                    -1.31806700           0.57473500           0.05528500         
C                    -0.99720000          -0.98102700           0.06872800         
C                    -1.34801400          -1.78380400          -1.18053500         
O                     0.12117200          -2.20413300          -1.35427600         
C                     0.43781800          -1.34622900          -0.25349200         
C                     1.45210900           0.15242900          -1.38477900         
C                     0.97835600           0.04772900          -0.48040500         
H                    -2.37269800           0.80147400           0.13543900         
H                    -0.81861200           1.11726500           0.88448700         
H                    -0.94910100           1.02229500          -0.90361700         
H                    -1.33148500          -1.46988100           0.97381500         
H                    -1.65157800          -1.14413700          -2.03837900         
H                    -2.05155800          -2.61127100          -1.07298100         
H                     0.95914600          -1.83533100           0.54035100         
H                     0.65028700           0.72308300           0.26384400         
