12

N                    -0.81623900          -0.31609200           0.57403100         
C                    -0.28175600           0.15475400          -0.70423900         
C                     1.15227400           0.57894800          -0.47170400         
O                     1.87590900          -0.15329100           0.42069600         
C                     1.75491900           1.45601800          -1.24744800         
N                     2.25981300           2.26911200          -1.97065900         
H                    -1.10239000           0.47248500           1.15007200         
H                    -1.63785000          -0.89438800           0.43464700         
H                    -0.28982000          -0.69226700          -1.40189000         
H                    -0.85296800           0.96281600          -1.17980000         
H                     1.50289200           2.61274600          -0.54132100         
H                     1.19066600          -0.60896400           0.95262500         
