10

N                    -2.34129800           0.05429300          -0.07363400         
C                    -1.02840300          -0.68964400           0.00692800         
O                    -0.41069700           0.07424500          -0.35215000         
C                     1.04575100          -0.61198800           0.08755000         
O                     1.16630300          -1.69233200           0.59891500         
N                     2.04777900           0.22021300          -0.26400200         
H                    -3.02278400           0.86391300          -1.50135500         
H                    -2.69187800           0.05621600           0.87282100         
H                     3.00939500          -0.09630300          -0.14246300         
H                     1.86596100           1.08302200          -0.82985300         
