10

C                    -1.63290700           0.64839100           0.16428900         
O                    -0.30645900           0.59593000           0.72430000         
C                     0.69519300           0.34784600          -0.08410000         
O                     0.49101900           0.23428200          -1.32178000         
C                     2.68098200          -0.09233400          -0.49909900         
O                     3.57788300           0.06209800           0.20585800         
H                    -2.30780100           0.78319400           1.00969400         
H                    -1.71346300           1.48304600          -0.53480100         
H                    -1.85030600          -0.28723500          -0.35961900         
H                     1.73418700          -0.05933000          -1.44509200         
