12

C                    -1.22392400          -0.78747700           0.26752300         
C                     0.99296700           0.28281700           0.10203000         
C                     0.37720000           1.56013900           0.44965100         
O                     0.70163000           2.62697800          -0.03019200         
C                     1.20907300          -0.73830000           1.06961500         
O                     0.30476900          -1.46862300           1.50800800         
H                    -1.42449800          -1.84394400           0.18595700         
H                    -1.68442000          -0.28910400           1.11522000         
H                    -1.28482400          -0.24203100          -0.66534900         
H                     1.83605000           0.39116500          -0.58376700         
H                    -0.46339400           1.51262200           1.18390000         
H                     2.22628800          -0.95086000           1.44083300         
