15

C                     0.79433500          -0.10673200           0.41255200         
C                     0.36097500          -0.73566800          -0.89564400         
N                    -1.12822000          -0.73484500          -0.76368900         
C                    -1.79363400          -1.96797600          -1.16834500         
C                    -1.44823200          -0.31086200           0.48440400         
O                    -1.41388500           0.88795000           1.04897400         
H                     1.82863700           0.04374600           0.75487200         
H                    -0.53696600           0.37226900           1.50888100         
H                     0.58768800           0.96289800           0.23947900         
H                     0.67334300          -1.77140200          -1.06838800         
H                     0.66353200          -0.14857200          -1.77441200         
H                    -1.25681800          -2.85401000          -0.80949400         
H                    -1.84712100          -2.01514800          -2.25902500         
H                    -2.81167200          -1.97608500          -0.76538400         
H                    -2.08479800          -1.01730300           1.05203700         
