13

O                     2.16868600          -0.72264800          -0.01050700         
C                     1.18426500          -0.11028800          -0.35042100         
C                    -0.45326400           0.91015700           0.46796800         
C                    -1.06717400          -0.15045000           1.20030300         
C                    -0.20635300          -0.85312900           0.03470800         
C                    -1.24807800           1.45511700          -0.63645600         
O                    -2.41682100           1.75157500          -0.48069000         
H                     1.25124500           0.73788700          -1.04632300         
H                    -2.13162100          -0.36745900           1.11174900         
H                    -0.61979300          -0.40167800           2.16509100         
H                    -0.82786000          -1.10431100          -0.82002200         
H                     0.30669400          -1.70754400           0.47554900         
H                    -0.70557000           1.74963900          -1.55897300         
