16

C                     1.32404300          -0.48628800           1.07728100         
C                     0.32401800          -0.67689300          -0.00813400         
C                     0.39925000           0.33365400          -1.99754400         
C                    -0.38927500           0.41504800          -0.74306200         
C                    -1.54506900          -0.62697800          -0.72410000         
N                    -1.22905800          -1.73194300          -1.51831800         
C                    -0.55183100          -1.79673900          -0.24439200         
H                     0.90073300           0.13663900           1.87077200         
H                     2.17754500           0.06876600           0.67055600         
H                     1.66927200          -1.42099100           1.51309400         
H                     1.44374700           0.63129100          -1.86208600         
H                    -0.06173300           0.72173200          -2.92038300         
H                    -0.59974700           1.34049600          -0.21046600         
H                    -2.49411400          -0.45026700          -0.22295200         
H                    -0.23075900          -1.18771600          -2.21994500         
H                    -0.53611800          -2.76010100           0.24882800         
