15

C                     1.24296500          -1.49184700           1.74512900         
C                     0.26134300          -0.26190800           0.56377400         
C                     0.97423700           0.99487500           0.83740100         
N                     1.86660700          -0.14623300           0.80161100         
C                     2.74719500          -0.27969300          -0.34677500         
C                     2.97101400          -1.69467400          -0.69267700         
N                     3.15039800          -2.80248700          -0.96991200         
H                     0.93525100          -1.06547900           2.69547100         
H                     2.24464600          -1.94330200           1.83170200         
H                     0.55946000          -2.28965700           1.44511200         
H                     0.14119300          -0.47440600          -0.50770900         
H                     1.17163700           1.67024900           0.00532000         
H                     0.87941600           1.49959600           1.79913000         
H                     2.30814300           0.20505800          -1.23337600         
H                     3.71695200           0.18497400          -0.13565500         
