16

C                    -1.42873000          -0.44412900           1.55289900         
C                    -0.68851400          -0.67073600           0.26810400         
N                    -0.55697600           1.44683200          -0.23497200         
C                     0.27638400           0.34324700          -0.25214500         
C                     1.51435100           0.21417600           0.75491900         
C                     1.62465800          -1.24401000           0.82881400         
O                     0.56634200          -1.90687600           0.77175200         
H                    -0.84906600           0.15268500           2.26094500         
H                    -2.34724000           0.10525800           1.33926500         
H                    -1.68475300          -1.40741000           2.00435700         
H                    -1.23609600          -1.24561600          -0.47887700         
H                    -0.51336800           1.90478200          -1.14566300         
H                     0.64080500           0.00298600          -1.23981400         
H                     1.17931700           0.65364600           1.69914300         
H                     2.43933800           0.70710800           0.44274600         
H                     2.56902300          -1.80222900           0.78512500         
