15

O                     1.80227800           1.50762800          -0.02827100         
C                     1.14326000           0.27584000           0.22907900         
C                    -0.32115600           0.53700400           0.47218900         
C                    -1.09255200           1.24157800          -0.56188600         
C                    -2.48325700           1.04447100          -0.57470700         
C                    -1.88190800          -1.02742900          -0.08414400         
O                    -2.04169900          -2.06242400          -0.56350100         
H                     2.69401100           1.30598200          -0.34302700         
H                     1.57060600          -0.23386400           1.10828300         
H                     1.25303100          -0.40934700          -0.62756700         
H                    -0.66808100           0.58476400           1.50024600         
H                    -0.54071000           1.94827500           0.25020900         
H                    -0.55621100           1.39117200          -1.49822700         
H                    -3.05291000           1.33865800          -1.45127200         
H                    -3.03116600           1.09720400           0.36523800         
