12

O                     1.43896100          -1.09731900           0.07209800         
C                     1.10279400          -0.01578800          -0.56748600         
C                     0.48931700           0.95427300           0.42159200         
C                    -0.88959600           1.40507700           0.22492200         
N                    -0.63398700           0.12487600           0.96188400         
C                    -0.50838600          -0.96061900           0.06390700         
O                    -0.41289300          -0.63014000          -1.19789200         
H                     1.65167800           0.20710800          -1.50636800         
H                     1.15343800           1.35136700           1.16882600         
H                    -1.32729800           1.32628000          -0.75631100         
H                    -1.28865200           2.17484600           0.88580100         
H                    -0.88259900          -1.96190000           0.33291600         
