14

O                    -2.85364800           0.84059600          -0.39587200         
C                    -1.91020400           1.70878500          -0.10850400         
N                    -0.79597200           1.35522000           0.52708200         
C                    -0.39298700          -0.02331700           0.76262400         
C                     0.61001900          -0.51479800          -0.29333000         
C                     1.84160600           0.28217100          -0.25972200         
C                     2.84604300           0.94452100          -0.19941100         
H                    -3.11930700           1.99915000          -0.33209400         
H                    -0.15315400           2.09682200           0.76294600         
H                    -1.30163000          -0.63051600           0.73665100         
H                     0.04849100          -0.10349200           1.76131800         
H                     0.83378800          -1.57461300          -0.13337100         
H                     0.14591300          -0.42339900          -1.28359500         
H                     3.73512000           1.53393100          -0.14725300         
