17

C                    -2.27000200           0.23397900          -0.53507600         
C                    -1.13533900           0.95415200          -1.23746500         
O                    -0.72977800           2.07293800          -0.43466400         
C                     0.60684000           2.34931200          -0.78613800         
C                     1.18732600           0.97902900          -1.13367600         
C                     1.01247000          -0.03730600           0.00342100         
C                     0.07954900           0.13453100          -1.63487900         
H                    -3.07428600           0.93529100          -0.29594700         
H                    -1.91986000          -0.21363500           0.40184300         
H                    -2.66711000          -0.55896000          -1.17495400         
H                    -1.48701900           1.32272000          -2.22084400         
H                     0.66165200           3.00720800          -1.66905200         
H                     1.09411500           2.85260400           0.05555800         
H                     2.15955800           0.95466700          -1.62431000         
H                     0.62245200           0.38551900           0.92960000         
H                     1.86361100          -0.70699100           0.12249200         
H                     0.21442800          -0.80119500          -0.40603900         
