13

C                     2.03762200          -0.02752400           0.00980200         
C                     0.57247900           0.09319700          -0.29886800         
C                    -0.13402900          -0.88474000          -0.98074900         
N                    -1.54954500          -0.29933200          -0.84971500         
C                    -1.52579900           0.97949500          -0.29253300         
C                    -0.23358400           1.22500900           0.05114000         
H                     2.22152200          -0.05741500           1.09082500         
H                     2.43445300          -0.94686100          -0.42905400         
H                     2.60618900           0.81865000          -0.39502700         
H                    -1.25066500          -1.22485600          -0.21976300         
H                    -2.25929400          -0.60798600          -1.50398800         
H                    -2.42975200           1.55966600          -0.16568800         
H                     0.11750200           2.13792900           0.52149700         
