14

O                    -1.10210900           1.79256500           0.05164000         
C                    -0.71557500           0.49575000           0.39586200         
C                    -1.26797700          -0.73379300          -0.36692300         
C                     0.18053600          -1.26105300          -0.49838800         
C                     1.01037500          -0.62546400          -1.52079200         
C                     0.73226900           0.02809000           0.15825500         
H                    -0.93230300           1.91548900          -0.89178000         
H                    -0.92962200           0.39118100           1.46331300         
H                    -1.71425700          -0.50453700          -1.34047000         
H                    -1.97209700          -1.33753000           0.21119500         
H                     0.47727500          -2.22082100          -0.08078100         
H                     0.35951700           0.06502000          -2.09274200         
H                     1.43724300           0.49847800          -0.66141000         
H                     1.45747300          -0.07227600           0.96613300         
