15

C                     0.86627100           0.93931700          -0.48441300         
C                     0.82653800          -0.54027300          -0.63474300         
O                     1.64220000          -1.69372500           1.48779200         
C                    -0.45211000          -1.22737400          -1.03905100         
N                    -1.57674800          -0.72593000          -0.26713000         
C                     2.01388900          -1.22727800          -0.66725000         
N                     2.91926100          -1.89181400          -0.28780700         
H                     1.82204700           1.28695200          -0.09187900         
H                     0.05769700           1.24605700           0.18895900         
H                     0.68580500           1.41218200          -1.46145100         
H                     1.43831800          -2.64487700           1.50487700         
H                    -0.32865400          -2.29947200          -0.86644400         
H                    -0.55171100          -1.08807900          -2.13181300         
H                    -2.34469600          -1.38792300          -0.30362500         
H                    -1.91811500           0.15054200          -0.64663300         
