17

C                    -0.63861800          -1.06534400           0.22153300         
C                     0.34632300          -0.02123400          -0.30077900         
O                     0.00304500           1.24796200           0.15427500         
C                     1.14116800           2.11062200           0.39028100         
C                     2.30470400           1.15850100           0.66089700         
C                     1.71422900          -0.16200700           1.08904100         
C                     2.32532100           0.36859600          -0.56894400         
H                    -1.61818000          -0.79264000          -0.19364400         
H                    -0.72655600          -1.11593100           1.31188400         
H                    -0.38298200          -2.04850300          -0.17736100         
H                     0.34354300          -0.13286400          -1.37700700         
H                     1.33336700           2.68019600          -0.53023700         
H                     0.89015400           2.80130900           1.20585300         
H                     3.13931700           1.52886900           1.25538600         
H                     0.99874000           0.02361000           1.88388400         
H                     2.37793800          -0.99710000           1.28319200         
H                     3.12525300          -0.39484200          -0.57546500         
