14

C                    -2.05698200           0.65825900          -0.60084100         
C                    -0.80145800          -0.08780000          -0.22365600         
C                     0.23138100           0.46063900           0.55765600         
N                     1.57950200           0.38222800          -0.00117700         
C                     1.51072500          -0.91902700           0.20243600         
O                     2.27580500          -1.81110800           0.44446000         
C                    -0.53071700          -1.40385000          -0.63064700         
H                    -2.46783300           0.24507100          -1.53599500         
H                    -1.88127200           1.72650500          -0.75125700         
H                    -2.83595800           0.52700700           0.15947200         
H                     0.08434800           1.24940500           1.29549500         
H                     2.35125500           1.00327600           0.24002000         
H                    -0.18343700          -2.16221800           0.05488100         
H                    -0.96348000          -1.74088500          -1.57370500         
