11

O                    -1.70908500           1.27033800          -0.42143100         
C                    -1.51802600           0.92711700           0.72079100         
N                    -0.28573800           0.63702700           1.21111300         
C                     0.83819600           0.70446900           0.30817300         
C                     1.88172700          -0.52283800           0.31679300         
C                     1.69674000          -0.76684100           0.29165400         
H                    -2.31051500           0.83947100           1.47638300         
H                    -0.15929400           0.22247200           2.11751800         
H                     0.41098500           0.96258200          -0.66536400         
H                     1.49640700           1.47982300           0.67592100         
H                     1.79177200          -1.70512700          -0.27737900         
