19

C                     2.36320700          -0.38139300          -0.61846000         
O                     1.03000000          -0.81554800          -0.55296000         
C                     0.35375100          -0.31105800           0.58793700         
C                    -0.14177400           1.13225900           0.37864900         
C                    -1.65743400           0.90799300           0.31210800         
C                    -0.97791100          -1.02995300           0.82105600         
C                    -1.45564600          -1.87579900          -0.31999300         
H                     2.93539700          -0.71207700           0.26314700         
H                     2.43719600           0.71586200          -0.68476400         
H                     2.80524400          -0.81901500          -1.51687500         
H                     1.02253100          -0.42624400           1.45797000         
H                     0.12841700           1.80495300           1.19839700         
H                     0.25814300           1.54582000          -0.55218600         
H                    -2.07677900           0.78370000          -0.68653500         
H                    -2.26651300           1.61090000           0.89247200         
H                    -1.83506200          -0.04806900           1.05319000         
H                    -2.52973400          -2.07580700          -0.25143200         
H                    -1.20282600          -1.53371700          -1.33342900         
H                    -0.94118400          -2.83679900          -0.18015400         
