15

C                     1.38209500          -0.00718200          -0.18881100         
C                    -0.11035000           0.01044200          -0.28770200         
O                    -0.71134000           0.77180000          -1.31721000         
C                    -1.92356600           0.53213100          -0.56832200         
C                    -2.23135300          -0.93927700          -0.87098900         
C                    -0.95476400          -1.30914400          -0.12110100         
C                    -1.14238200           0.23981900           0.77930200         
H                     1.76662000           0.99899000          -0.00284300         
H                     1.69879400          -0.66851600           0.62332200         
H                     1.81845200          -0.37460500          -1.12425300         
H                    -2.68460900           1.30703500          -0.66205100         
H                    -3.12293300          -1.29636200          -0.34616600         
H                    -2.29133600          -1.19888800          -1.93148500         
H                    -0.41069500          -2.25269400          -0.13345500         
H                    -1.26988300          -1.14787700           1.05979000         
