15

O                     0.53009400          -3.64864900           0.25708300         
C                     0.19845600          -2.46239400           0.16381400         
C                    -1.08102100          -2.37869300          -0.51223800         
C                    -1.53094300          -0.01157000          -0.28087500         
C                    -0.10930300           0.34799600          -0.69899400         
C                     0.88580000          -0.09486900           0.35076400         
C                     1.01851700          -1.37396500           0.73094900         
H                    -0.99249600          -2.33376800          -1.59563700         
H                    -1.79439500          -1.15755400          -0.01160500         
H                    -2.28835100           0.26267100          -1.01825600         
H                    -1.74848700           0.43825200           0.69418500         
H                     0.11696700          -0.12613600          -1.65780500         
H                    -0.03782100           1.42916200          -0.85957400         
H                     1.51406200           0.66564400           0.80871900         
H                     1.77807300          -1.67138500           1.44844700         
