14

C                    -0.85468700          -1.17127300           1.38967900         
C                    -0.26906900          -0.17103400          -0.80217600         
C                    -0.19779000           1.00951900           0.14307300         
N                     0.49778700           0.28661600           1.19054700         
C                     1.53109300          -0.46070200           0.52908200         
O                     2.52977800          -0.88373200           1.05189200         
O                     1.10005500          -0.64828900          -0.70743700         
H                    -0.32693600          -1.48358700           2.28957000         
H                    -0.96518600          -1.98475100           0.68587400         
H                    -1.77633300          -0.63049700           1.58872300         
H                    -0.43281500           0.20754500          -1.81494000         
H                    -1.17282000           1.36256300           0.48167900         
H                     0.41890000           1.85550000          -0.20164000         
H                     0.78348000           0.75122300           2.04622400         
