18

C                     2.17458400           0.64019000          -0.59222500         
C                     1.91104300          -0.44105000           0.46070400         
C                     1.00096600          -1.11814100          -0.43280300         
C                    -0.41411000          -1.03262700           0.02245200         
C                    -0.59996600           0.44778200          -0.21951700         
C                    -1.55573100           1.20769200           0.68761600         
H                     1.59449500           0.80211400          -1.47533200         
H                     0.98641100           1.21694300          -0.10677300         
H                     3.22479200           0.89701500          -0.63217400         
H                     1.44868600          -0.02981100           1.36881100         
H                     2.83093400          -1.01562700           0.70768600         
H                     1.37491300          -1.99655500          -1.00354900         
H                    -0.46416700          -1.24142500           1.10354800         
H                    -1.11026000          -1.69148500          -0.47736900         
H                    -0.77527100           0.63417900          -1.27619500         
H                    -2.60300400           0.90939300           0.49714900         
H                    -1.49318400           2.29861300           0.55571400         
H                    -1.37074900           1.02460300           1.73805600         
