13

O                     0.16580400           2.39014700           1.51709500         
C                     0.06881500           1.43424400           0.78385300         
C                     1.22908400           0.67126900           0.23692100         
O                     0.88457500          -0.43736600          -0.32587700         
C                    -0.56262100          -0.41925800          -0.49270500         
C                    -1.47410200          -0.59256500           0.68860300         
C                    -1.10999000           0.77396000           0.15676900         
H                     2.27348400           0.74789300           0.53325100         
H                    -0.16893600           1.98694900          -1.37632200         
H                    -0.78143000          -0.76844000          -1.49865300         
H                    -1.06948100          -0.91837700           1.64647100         
H                    -2.43912300          -1.03094300           0.44662900         
H                    -1.06953300           1.72803300          -0.80192600         
