10

N                     1.64062100          -0.04802700          -0.19936100         
C                     0.41545600          -0.12828500          -0.41207800         
C                    -0.49317000          -1.30280400          -0.51027800         
C                    -1.74116000          -0.89771700          -0.82430900         
C                    -1.60775200           0.53902800          -0.75415400         
O                    -2.73736700           1.09199200          -0.77055100         
O                    -0.42105900           1.05996900          -0.57706700         
H                     1.97939900           0.91326200          -0.19351700         
H                    -0.08785500          -2.29705300          -0.35802100         
H                    -3.08257800          -0.08928500          -0.81272100         
