14

N                     3.34015700           0.06356500           0.33638300         
C                     2.14266400           0.55638800          -0.03869000         
O                     1.50888300           1.43746100           0.48632000         
C                     0.96912100          -1.15639600          -0.81628900         
C                    -0.39405800          -0.62337300          -1.00964600         
C                    -0.64813600           0.63676500          -1.74615500         
O                    -1.00999400          -0.59004800          -2.30923000         
H                     3.77356200           0.43322400           1.16783400         
H                     3.73237800          -0.74449400          -0.11802900         
H                     1.38282200          -1.45158600          -1.80084800         
H                     1.81312000           0.18889100          -1.08545200         
H                    -1.09813400          -0.83609900          -0.20392800         
H                     0.17699000           1.15245700          -2.22531200         
H                    -1.45659000           1.27448900          -1.40455100         
