17

C                    -2.26506000          -0.58063000           0.10296800         
C                    -0.78509600          -0.29082600          -0.07748200         
C                     0.10646200           0.13689100           1.08898400         
C                     1.19343400          -0.67704900           0.36877200         
C                     0.10113900          -1.53268900          -0.22766100         
C                     3.13577100          -2.32534600           0.95463100         
O                     2.44693900          -1.17802100           0.93499400         
H                    -2.85859100           0.33544600           0.20153300         
H                    -2.44620100          -1.17742700           1.00635700         
H                    -2.63483900          -1.15331100          -0.75176800         
H                    -0.64556200           0.38960800          -0.92334300         
H                     0.25473100           1.19778800           1.21964600         
H                    -0.19019800          -0.33997500           2.03278400         
H                     1.53643800           0.00394500          -0.41530600         
H                     0.31727100          -1.90497500          -1.23982000         
H                    -0.18049300          -2.38355300           0.42255500         
H                     3.08520900          -1.22385000           0.97726000         
