19

C                     3.21333100           0.31991200           0.60470500         
C                     1.96581700          -0.52966800           0.37507900         
C                     0.72594400           0.33636700           0.08922200         
C                    -0.47230800          -0.54559200          -0.11402000         
C                    -1.09574600          -0.46820400          -1.51713700         
O                    -2.44137000          -0.11271600          -1.24105700         
C                    -2.26841200           0.65602400          -0.09134100         
H                     3.45671400           0.91570500          -0.28216500         
H                     3.06567900           1.01410300           1.44088900         
H                     4.08271400          -0.30462400           0.83680400         
H                     1.76004400          -1.16428000           1.24413600         
H                     2.13802000          -1.21052600          -0.46904400         
H                     0.94638200           1.01233000          -0.75773700         
H                     0.55185100           0.97496000           0.96613700         
H                    -1.55906600          -0.05137800           0.59696300         
H                    -1.06339100          -1.43138200          -2.04331100         
H                    -0.63711000           0.30499600          -2.16794200         
H                    -1.84604400           1.65567600          -0.26928300         
H                    -3.19135900           0.70813000           0.49728400         
