19

C                    -1.90068700           0.12307400           0.94628500         
C                    -0.89374000           1.11336700           0.36864400         
C                    -0.09601100           0.50895700          -0.78401600         
C                     0.99531800           1.35653600          -1.30425100         
C                     0.94814700          -0.52932000          -0.42963000         
C                     1.85698900          -0.18324300           0.59100600         
O                     2.50172400           1.20994400          -0.08686300         
H                    -2.64003000          -0.16716000           0.19022700         
H                    -2.44220100           0.54668200           1.79890900         
H                    -1.38967900          -0.78758600           1.27741900         
H                    -0.20912600           1.45233600           1.15633300         
H                    -1.40909800           2.01454500           0.00803700         
H                    -0.77140100           0.13304400          -1.56118500         
H                     1.39082700           1.09729400          -2.27928600         
H                     1.02570800           2.42951900          -1.09432600         
H                     1.20876400          -1.28211000          -1.16553200         
H                     1.49268300           0.27211000           1.51899200         
H                     2.69590100          -0.85784100           0.75295700         
H                     2.56172500           1.95744900           0.54637400         
