14

O                    -0.73455500          -0.15119100           2.10581000         
C                    -0.97124400           0.30946400           0.81640400         
C                     0.11686400           2.29837700           0.86457900         
O                     1.18175500           1.64373100           1.41466000         
C                     1.87237600           0.81545000           0.52674500         
N                     1.34895700          -0.03154700          -0.22933100         
C                    -0.08296500          -0.30944200          -0.24226800         
H                     0.10471100           0.23281100           2.40424000         
H                    -2.03491200           0.15877000           0.61173700         
H                     0.24714900           2.34469300          -0.23395600         
H                    -1.03048800           1.60605000           0.97102500         
H                     2.94514800           0.99540200           0.56865100         
H                    -0.47216500          -0.08110700          -1.24155000         
H                    -0.15944600          -1.39885800          -0.12985500         
