14

C                    -2.26583600           1.79755900          -0.45883000         
C                    -0.88708600           1.21915500          -0.32812500         
O                    -0.79610500           0.09096300          -1.24544800         
C                     0.33212900          -0.57627000          -1.34792100         
C                     1.35371500           1.72059700          -0.72019200         
N                     2.40284900           2.40518900          -0.77818300         
O                     0.05755200           2.21634000          -0.59790600         
H                    -2.35428000           2.64224900           0.23050000         
H                    -3.01359000           1.03838900          -0.20831100         
H                    -2.43236900           2.14475600          -1.47833400         
H                    -0.67766200           0.80101000           0.66527000         
H                     1.27994300           0.22008400          -1.34094000         
H                     0.21162200          -1.63126200          -1.58063900         
H                     2.25034100           3.40651800          -0.59756600         
