14

C                    -1.55496100          -0.32749800           0.50161700         
C                    -0.75365400          -0.46858300           0.14135400         
N                     0.18524400           0.60698500           0.25828300         
O                    -0.73833700          -0.56241400           0.11937900         
C                     0.36287400          -0.86162200          -0.00463800         
C                     1.39119400          -0.15657000          -1.25656800         
O                     1.37093200           1.14358300          -0.51787800         
H                    -1.70873600           0.52484300           1.20001100         
H                     0.76550600          -0.03186100          -2.89558600         
H                    -2.31094500          -1.14081600           0.42082400         
H                    -0.26630500           1.48667700           0.60630300         
H                     0.89781300          -0.86463000           0.97234300         
H                     0.09767300          -1.86800700          -0.24791700         
H                     2.10393800           0.37637900          -0.90923300         
