11

N                    -1.79558700           0.27396300           0.35972600         
C                    -0.63575300          -0.06929400          -0.23365100         
N                    -0.23775600          -1.34908900          -0.46691700         
N                     0.77041000          -1.29640800          -1.27824100         
C                     1.04771900           0.03678300          -1.49620500         
N                     2.05627500           0.60136900          -2.01747900         
O                     0.03431300           0.80886100          -0.96034600         
H                    -2.02960600           1.25531000           0.31312800         
H                    -2.57868700          -0.34286300           0.19403800         
H                     1.78123600           0.82457900           0.54938100         
H                     2.70670900          -0.13650600          -2.30147100         
