15

C                    -1.87920900          -0.66532300           0.09640700         
N                    -0.58431000          -0.05989200          -0.11550200         
C                     0.47379400          -0.51293500          -0.88840700         
C                     1.48271600           0.49268100          -0.94798700         
C                     1.88107400          -1.01043900           0.13925600         
C                     0.93843300           1.41677800           0.04064800         
N                    -0.26451500           1.11251200           0.46748100         
H                    -2.45456900          -0.70820600          -0.83485900         
H                    -2.41118600          -0.04577200           0.81922300         
H                    -1.77682000          -1.67881600           0.50076100         
H                     0.33187900          -1.36121800          -1.55057800         
H                     2.89170300          -1.05519600          -0.25568000         
H                     1.50480900          -2.03319600           0.24070700         
H                     1.85949300          -0.53848400           1.11836500         
H                     1.40569600           2.32573500           0.40239200         
