16

O                    -2.83756100          -1.30382800          -0.04933800         
C                    -1.89779100          -0.54041600          -0.76170300         
C                    -1.26228200           1.70434100          -0.98206100         
C                    -0.03091500           0.94621400          -0.54995700         
C                     1.35840100           1.17298800          -1.01598700         
N                     0.93288300           1.70746300           0.27039600         
C                    -0.50892600          -0.44299700          -0.13406300         
H                    -2.97589000          -0.88842200           0.81153400         
H                    -1.88599700          -0.92833000          -1.78402400         
H                    -2.33503100           0.66745600          -0.68384600         
H                    -1.17558400           2.10227600          -2.01165900         
H                     1.56435100           1.92619300          -1.77441700         
H                     2.03022700           0.31096100          -1.03652000         
H                     1.28863100           1.14454300           1.04432600         
H                     0.15177000          -1.25152800          -0.45869500         
H                    -0.58373400          -0.50147800           0.96425900         
