21

C                    -2.08560100          -0.73484000          -0.06096700         
C                    -1.03444400           0.23652100          -0.58978800         
C                    -1.34158800           1.68256200          -0.43954200         
C                    -0.58536400           2.09220500           1.27996300         
C                     0.09748600           0.66437800           0.29785800         
C                     0.41204000          -0.38883500           1.37288100         
C                     1.38724700           1.00551300          -0.42879600         
H                    -1.69022400          -1.73558000           0.16325100         
H                    -2.86852200          -0.84102300          -0.81081800         
H                    -2.54824400          -0.32869200           0.86139900         
H                    -0.65018800          -0.11097700          -1.56355000         
H                    -0.72094800           2.21344000          -1.14150600         
H                    -1.21220900           2.97839200           1.21158800         
H                     0.41148800           2.47454000           1.56207300         
H                    -1.01704300           1.49057400           2.08677600         
H                     1.23155600          -0.05042300           2.01348900         
H                     0.71267300          -1.31242200           0.84938700         
H                    -0.43050500          -0.61661200           2.01969300         
H                     1.27124700           1.79166500          -1.17895300         
H                     2.13546100           1.33593200           0.30073900         
H                     1.79951000           0.11238400          -0.92417500         
