13

C                    -0.13805200           1.31054100           0.51570200         
C                     1.26283700           0.19668800          -0.15640400         
C                     0.94781600          -1.17603400           0.27510200         
C                    -0.49073200          -1.13223100           0.76017000         
C                    -0.71059600           0.15523800          -0.02351000         
N                     0.92314000          -0.69013600          -1.13305000         
H                    -0.17886300           2.24332400          -0.03616800         
H                     0.04230300           1.36746900           1.58525100         
H                     2.08734700           0.90084500          -0.09681900         
H                     1.67425000          -1.94077900           0.54868600         
H                    -0.67384200          -0.95780000           1.82333400         
H                    -1.06169700          -1.98970700           0.39122300         
H                    -1.36339300           0.17163200          -0.89074400         
