16

C                     1.82357200           0.76560500           0.41718900         
N                     0.62826200          -0.00460600           0.13674600         
C                    -0.27292500          -0.33367600           1.19521700         
C                    -1.65211000           1.04442500           1.23563700         
C                    -0.96898300           1.86875400           0.12902300         
C                    -0.49203000           0.59806300          -0.60681900         
C                    -1.48139700          -0.16458500           0.32059900         
H                     1.62922000           1.67929100           1.00151800         
H                     2.29673100           1.04828100          -0.52722800         
H                     2.52937400           0.14164400           0.97518700         
H                    -0.16122600          -1.22004200           1.82221700         
H                    -0.52119600           0.57106100           2.02513000         
H                    -0.26552200           2.66917300           0.38605100         
H                    -1.81158900           2.30852300          -0.41867400         
H                    -0.42260100           0.56250300          -1.69716700         
H                    -2.18682700          -0.96668400           0.12302600         
