12

N                     0.29516100           0.82286500           0.98253600         
C                    -0.56321600          -0.27057900           0.87816900         
C                    -1.85524100           0.00653000           0.14272600         
C                    -2.34091100          -1.19963400           0.87921100         
O                    -1.51565000          -2.19696300           0.40655000         
C                    -0.23942500          -1.66290700           0.40612700         
O                     0.76591200          -2.25257400           0.15749100         
H                     0.49981800           1.31740500           0.12711000         
H                     1.12473600           0.66827200           1.54351700         
H                    -2.34218200           0.94053400           0.43293900         
H                    -1.82140800          -0.09364800          -0.94363800         
H                    -1.47719800          -0.78061400           2.02043600         
