18

C                     2.11708600           0.29180800          -1.26083300         
C                     1.65161300           0.04704800           0.15426800         
C                     1.25387600           1.12977600           1.14267700         
N                     0.30431600           0.42677000           0.46702400         
C                    -0.95302600           0.09786000           0.56028900         
C                    -2.04538600           1.15081100           0.72327000         
O                    -2.58667500           1.33302200           1.99719700         
H                     1.83058900          -0.54070900          -1.91468000         
H                     3.20559800           0.38532900          -1.28649100         
H                     1.68249300           1.21591300          -1.65961600         
H                     1.98668100          -0.89116400           0.60650000         
H                     1.41209900           2.20177300           1.05832800         
H                     0.76425500           0.68383500           2.32392900         
H                    -1.19451500          -0.88647900           0.16502900         
H                    -0.35375000           0.34430000           2.69026300         
H                    -1.63677400           2.08592800           0.30050600         
H                    -2.88997000           0.84540300           0.09363600         
H                    -1.83196800           1.34338100           2.61000000         
