17

C                    -1.57235100          -0.27311000          -0.34960800         
C                    -0.65774100           0.18469900          -1.45832600         
N                    -0.09399400           1.51861300          -1.45646200         
C                     0.81595500           0.36883900          -1.26296500         
C                     1.31988300          -0.04746700           0.09715200         
C                     2.75148300          -0.51858300          -0.21315700         
N                     2.78661300           0.36265500           0.93654500         
H                    -2.57323300           0.15844600          -0.47406100         
H                    -1.18532100           0.02285000           0.62559400         
H                    -1.67305200          -1.36528800          -0.35732100         
H                    -0.95989500          -0.15489800          -2.44836500         
H                    -0.28107400           1.96212500          -0.55977400         
H                     1.44553800           0.21026100          -2.13608400         
H                     1.94764900          -0.37723200           1.33339400         
H                     3.06624300          -1.52801200           0.06045400         
H                     3.24340100          -0.18608700          -1.12710800         
H                     2.89845900           1.36510500           0.89326200         
