13

C                     1.76853400          -0.39726400          -0.32866300         
O                     1.41958300          -0.46252500           1.00004700         
C                     0.19229700          -0.70414100           1.40251600         
C                    -1.00521800           0.11245700           1.05093400         
O                    -1.41945500          -0.02951200          -0.30124200         
C                    -0.63797900          -0.87491300          -1.02797200         
O                    -0.83442200          -0.99909800          -2.19940000         
H                     0.66328300          -1.17824600          -0.63319400         
H                     2.80946900          -0.69734100          -0.45919600         
H                     1.51816300           0.54168000          -0.82361500         
H                     0.22340300          -1.29035700           2.31131300         
H                    -0.81480600           1.18762500           1.20730400         
H                    -1.83361000          -0.19647300           1.68757200         
