15

C                     1.81736000          -0.14004300           0.19682700         
C                     0.79817200          -0.35194400           1.26791100         
C                    -0.87014800           0.70457800           1.82925600         
C                    -1.52200400          -0.68234600           1.74549100         
O                    -2.24445100          -0.36407700           0.50907900         
C                    -0.91924400          -0.16331200           0.12486300         
C                    -0.31523800          -1.26526600           0.91824900         
H                     2.68491200          -0.73058200           0.53281700         
H                     1.56129700          -0.49417100          -0.82252400         
H                     2.15854100           0.89762800           0.14798600         
H                    -1.56499600           1.50410100           1.56014600         
H                    -0.27704800           0.98651400           2.69762100         
H                    -2.12381700          -1.15162300           2.52350000         
H                    -0.69812200           0.23591900          -0.86641900         
H                    -0.24346700          -2.27192600           0.50447000         
