16

C                    -1.12951400          -0.97335700          -1.09752400         
C                    -0.57792900          -0.65334200           0.16311500         
O                     0.03024200          -2.40573200           0.47218700         
C                     0.76529600           0.03607000           0.35797200         
C                     1.78605800          -0.25625800          -0.74486500         
C                     0.51193500           1.48280300           0.47766700         
N                     0.32233800           2.61995500           0.57303600         
H                    -0.58240300          -0.71615100          -1.99982300         
H                    -2.20908900          -1.06003700          -1.18064100         
H                    -0.61081100          -2.19433200          -0.58048200         
H                    -1.23513200          -0.59812100           1.02937400         
H                    -0.55655400          -2.86073900           1.09971800         
H                     1.17200000          -0.30177500           1.31604300         
H                     2.73448200           0.23817500          -0.51666600         
H                     1.44246600           0.11867400          -1.71299600         
H                     1.94393400          -1.33496200          -0.80653000         
