14

C                    -1.35992500          -1.45394900          -0.05710800         
C                    -0.48840400          -0.22259100          -0.02170300         
C                     0.70808800          -0.32733600          -1.01062900         
C                     1.89960600           0.06430200          -0.18755900         
O                     0.57130000           1.85763000           1.32671400         
C                    -1.24180200           1.09315600          -0.27791300         
N                    -1.18704900           1.83354500          -0.01439600         
H                    -2.17228300          -1.33296700           0.66690400         
H                    -0.75659900          -2.32011700           0.24080200         
H                    -1.80256100          -1.61802400          -1.02631400         
H                    -0.20358200          -0.01210300           1.00039200         
H                     0.74431300          -1.35479300          -1.40478500         
H                     0.64354900           0.35704500          -1.86271000         
H                     2.30582700          -0.83553700           0.32357900         
