19

C                     3.09086100           0.22678600          -0.37588200         
C                     1.69901400           0.26506700          -1.00386600         
C                     0.64784500          -0.16627600           0.02584000         
C                    -0.97186500           0.50983400          -0.73724900         
C                    -1.75610900          -0.57035500          -0.27204600         
C                    -1.39326500          -1.86532800          -0.70707900         
O                     0.53099000          -1.42683600           0.25327200         
H                     3.16220200           0.93745300           0.45649700         
H                     3.29394600          -0.77391100           0.01930400         
H                     3.87079600           0.47990500          -1.10234200         
H                     1.48775100           1.26951500          -1.39616000         
H                     1.64900000          -0.44291100          -1.84178000         
H                     0.66307100           0.49980100           0.91436800         
H                    -1.23245200           1.50716000          -0.38448100         
H                    -0.67764900           0.48684900          -1.78613900         
H                    -2.58593600          -1.32914000          -1.00319900         
H                    -2.25454600          -0.51116000           0.69322600         
H                    -1.63389400          -2.74247600          -0.11716000         
H                    -0.92633000          -1.99373200          -1.67618400         
