12

N                     2.99977100           0.99796800           0.26605200         
C                     2.01423800           0.40284800           0.16726000         
C                     0.78285700          -0.38758600           0.06131200         
N                    -0.36868600           0.46058400          -0.19924900         
C                    -1.62413900           0.05927100          -0.48073400         
C                    -0.45368200           1.75346400          -0.60853600         
H                     0.89664200          -1.11457800          -0.75510200         
H                     0.64134400          -0.94910600           0.99141700         
H                    -2.44440000           0.48801600           0.07749100         
H                    -1.80505200          -0.81014200          -1.11917900         
H                    -0.72124000           1.96770700          -1.63455900         
H                    -0.10168400           2.56053400           0.03506700         
