15

O                     1.41005100          -1.75516200           0.98736300         
C                     0.81883400          -0.71651500           0.71153800         
C                    -0.70145100          -0.72480600           0.49725300         
C                    -1.43085100           0.56401500           0.90949800         
C                    -0.70204200           1.80320800           0.49873700         
C                     0.69000100           1.75785100           0.33827300         
C                     1.47206000           0.53844700           0.44966500         
H                    -0.85747100          -0.88439600          -0.58163200         
H                    -1.11560700          -1.60109400           1.00192200         
H                    -2.45495300           0.55688000           0.51903800         
H                    -1.52567600           0.60494800           2.00903000         
H                     0.46360300           1.26240200          -0.70262500         
H                    -1.20661800           2.76252700           0.45184000         
H                     1.22089700           2.69062300           0.15366400         
H                     2.55166700           0.59619800           0.39101500         
