17

C                     1.88724900          -1.09908800           0.81210000         
C                     0.57135500          -0.58094600           1.35380800         
C                     0.55920100           1.23136100           0.34473700         
C                    -0.66668700           0.56942100           0.14345100         
O                    -0.82062600          -0.25013200          -0.93721500         
C                    -0.92542000          -1.58863300          -0.31519400         
C                    -0.68115000          -1.21794900           1.09619200         
H                     2.17197600          -1.95477400           1.44319600         
H                     2.68200100          -0.35042800           0.84303200         
H                     1.78174200          -1.46189300          -0.21400200         
H                     0.63842900          -0.17075000           2.36350400         
H                     0.58141200           2.14130700           0.94184800         
H                     1.27646700           1.17115900          -0.46550700         
H                    -1.57969300           0.97553000           0.58509000         
H                    -0.18806700          -2.20526000          -0.84505400         
H                    -1.93073100          -1.97471000          -0.50959500         
H                    -1.34793600          -1.46562800           1.91580700         
