19

C                     1.92192900           0.28523800          -0.16706500         
C                     0.72563300          -0.20684900           0.46891200         
O                     0.67601600          -0.12289700           1.87324400         
C                    -0.48594900           0.93389400          -0.14376300         
C                    -0.09626600           1.03063100          -1.60882900         
C                    -1.80932300           0.50572200           0.05172200         
C                    -2.42580200          -0.71260100          -0.54983800         
H                     1.28288300           0.88559700          -1.21790800         
H                     2.55625100          -0.42217700          -0.69821900         
H                     2.46030600           1.03071700           0.41656200         
H                     0.37348000          -1.16915200           0.08187700         
H                    -0.23291500          -0.29658500           2.12761100         
H                    -0.20357400           1.82716800           0.40740700         
H                    -0.33883800           0.16967200          -2.22613000         
H                    -0.36278700           1.96949900          -2.10395900         
H                    -2.42314800           1.02088600           0.79719100         
H                    -1.80201300          -1.15267400          -1.33646400         
H                    -3.41797300          -0.49349100          -0.96666500         
H                    -2.58572500          -1.49044100           0.20702500         
