%chk=ts_freq.chk
%nprocshared=4
#P Opt=(TS,CalcAll,NoEigenTest,NoMicro,MaxCycles=150) Freq External='../../../../../production/external/horm.sh'

External--CalcAll initial TS guess: rxn3010

0 1
C  -1.03599720 -0.95772480 -0.04720325
C   0.08605380  0.04922387 -0.08527326
C  -0.14489704  1.48364600  0.09638443
O   0.30015270  0.71746550  1.18822780
C   1.18213220 -0.26739228 -1.29837360
C   1.77965400 -0.57852230 -0.23421864
H  -0.71192205 -1.86922370  0.47995560
H  -1.34583520 -1.22805850 -1.05861580
H  -1.88708160 -0.54656386  0.49885377
H  -1.16652130  1.84808900  0.16111219
H   0.58805776  2.17630220 -0.33724672
H   2.35620380 -0.82724140  0.63639760

