%chk=ts_freq.chk
%nprocshared=4
#P wB97X/6-31G(d) opt(ts,calcall,noeigentest,nomicro,maxcycles=150) freq

GSM eqV2 pure Gaussian calcall TS opt+freq: rxn4620

0 1
C   2.30995300 -0.13086200 -1.16326900
C   0.96555400  0.51853400 -1.23363100
C   1.24877100  0.87472400  1.33862400
C   0.15973800  1.58030400  0.82629100
O  -0.08192000  2.77864100  0.72664600
N  -0.73336700  0.67960200  0.06312500
H   2.66344400 -0.21078100 -2.20741100
H   2.24901100 -1.15262500 -0.77686900
H   3.01521200  0.43580100 -0.55967700
H   0.91995200  1.59220600 -1.38653400
H   0.25541300 -0.04703400 -1.82984800
H   1.15908000 -0.19131800  1.52900800
H   2.02198900  1.41898500  1.86782200
H  -1.59150200  1.15243400 -0.20972700
H  -0.91955900 -0.21263500  0.51119500

