%chk=ts_freq.chk
%nprocshared=4
#P wB97X/6-31G(d) opt(ts,calcfc,noeigentest,nomicro,maxcycles=150) freq

GSM eqV2 pure Gaussian calcfc TS opt+freq: rxn8036

0 1
C   2.78031100  0.14663100 -0.47142100
O   1.39398000  0.46245200 -0.65571100
C   0.55218500 -0.53719400 -0.46323600
C  -0.82524200 -0.25115500  1.02854700
O  -1.66739500 -0.56628900 -0.03888600
C  -0.78260000 -0.44673800 -1.08712800
O  -1.08553100 -0.37277700 -2.24363300
H   2.88593800 -0.77530300  0.10614700
H   3.23746500  0.98490700  0.06046100
H   3.24566700  0.03169400 -1.45339500
H   0.32045500 -0.89798600  0.69812200
H  -0.72758100  0.81597700  1.23552000
H  -1.06187000 -0.84329400  1.91657800

