%chk=ts_freq.chk
%mem=6GB
%nprocshared=4
#P opt(ts,calcall,noeigentest,nomicro,maxcycles=150) freq External='../../../../../production/external/horm.sh'

GSM eqV2 C eqV2-EFH calcall TS opt+freq: rxn356

0 1
C  -2.02123000  1.16708600 -0.72596600
C  -1.57112400 -0.24139300 -0.37068700
N  -0.18694400 -0.47577700 -0.73492900
C   0.70122700 -1.70285000 -0.20387300
C   0.92041800 -0.27907400  0.18194500
C   2.10801200  0.52006900 -0.29236200
H  -3.08060100  1.30638700 -0.49411300
H  -1.43667200  1.91227400 -0.17523400
H  -1.86496500  1.35697400 -1.79294700
H  -1.68795900 -0.43549100  0.70818100
H  -2.18337400 -0.99091200 -0.88675000
H   0.11726900 -2.26285400  0.53526400
H   0.30636000 -1.21501400 -1.45134000
H   0.54965900 -0.00662300  1.17242200
H   2.95052200  0.38946700  0.39607800
H   1.87203100  1.59013900 -0.34697800
H   2.42091800  0.17190900 -1.28040900

