%chk=ts_freq.chk
%nprocshared=4
#P wB97X/6-31G(d) opt(ts,calcall,noeigentest,nomicro,maxcycles=150) freq

ReactOT exact pure Gaussian calcall TS opt+freq: rxn8036

0 1
C   2.19400840 -0.13394843 -0.36973572
O   0.90231500  0.42719117 -0.56618450
C  -0.11659473 -0.35533770 -0.28732774
C  -1.54207240  0.29901910  1.11695470
O  -2.31306390 -0.01630149  0.01642214
C  -1.37592170 -0.08032624 -0.99635214
O  -1.66402160 -0.01530396 -2.15806530
H   2.31130980 -0.39189407  0.69183385
H   2.93003180  0.61920667 -0.63716910
H   2.31036880 -1.02908230 -0.97663254
H  -0.49085116 -0.55436370  0.89027840
H  -1.22581160  1.34477810  1.21880480
H  -1.91969670 -0.11363708  2.05717300

