%chk=ts_freq.chk
%nprocshared=4
#P Opt=(TS,CalcAll,NoEigenTest,NoMicro,MaxCycles=150) Freq External='../../../../../production/external/horm.sh'

External--CalcAll initial TS guess: rxn3801

0 1
C   2.07773610 -0.42182790 -0.51977940
O   0.71097666 -0.76555410 -0.53265650
C  -0.18467017  0.22893435 -0.58285487
C  -1.54452880 -0.29945287 -0.92375370
C  -0.56123550  0.63716080  1.50041000
H   2.55842000 -0.91008884  0.31998690
H   2.19769480  0.66538510 -0.41553286
H   2.50965380 -0.71769017 -1.47429060
H  -0.09465622  1.05135630  0.29247347
H  -1.75231480 -1.27332600 -0.45769113
H  -1.58721730 -0.42700657 -2.00753360
H  -2.32687120  0.40832537 -0.63268120
H  -1.50684820  1.19195070  1.61390440
H   0.21121086  1.05784480  2.13844560
H  -0.70734960 -0.42601097  1.68155360

