%chk=ts_freq.chk
%nprocshared=4
#P Opt=(TS,CalcAll,NoEigenTest,NoMicro,MaxCycles=150) Freq External='../../../../../production/external/horm.sh'

External--CalcAll initial TS guess: rxn4082

0 1
C  -2.19293600 -0.01751800 -0.64116900
C  -0.76776800 -0.07836500 -0.18517100
C   0.22043900  0.79236600 -0.41438500
C   1.53947100  0.45439100  0.09609900
O   1.08672100 -0.89358000  1.00684900
C  -0.25461000 -1.26236200  0.58565300
H  -2.45074200 -0.85146100 -1.30978700
H  -2.39136200  0.91573200 -1.17745800
H  -2.88596500 -0.06672800  0.20956400
H   0.09425500  1.71116100 -0.98367600
H   1.93540900  1.12022900  0.86740000
H   1.81153000 -1.03365200  0.21243700
H  -0.82489600 -1.49465500  1.49194800
H  -0.18992800 -2.18004200 -0.01888100

