%chk=ts_freq.chk
%nprocshared=4
#P wB97X/6-31G(d) opt(ts,calcfc,noeigentest,nomicro,maxcycles=150) freq

GSM eqV2 pure Gaussian calcfc TS opt+freq: rxn5733

0 1
C   2.20836300 -0.58084500 -0.54169700
C   0.94829800 -0.86132100  0.28742800
O   1.29772800 -1.23274000  1.60960500
C   0.16204100  0.42554700  0.26928900
C  -0.81693400  0.54824000 -0.83499100
C  -1.66695700  0.04747500  0.32266400
C  -2.26279500 -1.34052000  0.22964200
H   1.98052400 -0.49704400 -1.61075400
H   2.90984400 -1.40682600 -0.39333500
H   2.68603000  0.34731600 -0.20978100
H   0.44308700 -1.73202900 -0.16104400
H   1.19592500 -0.42876700  2.13922400
H  -0.87652600  0.23945500  1.23003100
H  -0.76450900 -0.16394300 -1.66573600
H  -1.05332000  1.55398100 -1.18474500
H  -2.38335200  0.81494800  0.62122400
H  -1.50945700 -2.09885600  0.00142900
H  -3.01658700 -1.36475700 -0.56490800
H  -2.74770200 -1.62398400  1.16941800

