%chk=ts_freq.chk
%nprocshared=4
#P wB97X/6-31G(d) opt(ts,calcall,noeigentest,nomicro,maxcycles=150) freq

ReactOT exact pure Gaussian calcall TS opt+freq: rxn7979

0 1
O  -0.06829178  2.56882210 -0.27243516
C  -0.15911610  1.39458610 -0.03155840
C  -1.44888410  0.57577205 -0.11145929
C  -1.09153570 -0.74586710  0.53876644
C   0.31536690 -0.79619200  0.79276407
C   1.42327510 -0.44559088 -0.79257430
C   0.97993260  0.46450320  0.35892860
H  -1.78305070  0.49495970 -1.15731620
H  -2.26331690  1.10433260  0.39543983
H  -1.76367380 -1.56608410  0.74549854
H  -0.08544604 -1.24541300 -0.29543686
H   0.80719525 -1.56867370  1.38223110
H   0.95660126 -0.30936348 -1.75986910
H   2.42361760 -0.84288160 -0.76631480
H   1.75732610  0.91709006  0.97333530

