%chk=ts_freq.chk
%nprocshared=4
#P wB97X/6-31G(d) opt(ts,calcfc,noeigentest,nomicro,maxcycles=150) freq

GSM eqV2 pure Gaussian calcfc TS opt+freq: rxn6227

0 1
C  -1.85590000  0.15531100  0.16104600
C  -0.36646500  0.06239800  0.19878000
N   0.35785200 -0.77410800  1.12707700
C   0.57114000  0.49908500  1.30903100
C   1.86055400  0.68890300 -0.52934300
C   0.47850900  0.40695100 -1.00631400
O   0.01821500  0.61530000 -2.11131200
H  -2.15527200  1.11785600 -0.25670500
H  -2.27592600  0.06195100  1.17050900
H  -2.26858700 -0.63329600 -0.47493400
H   0.75204300 -1.70362700  1.17427200
H   1.47054200  1.24232500  1.06600700
H   2.49634600 -0.17157000 -0.32775200
H   2.30496000  1.41606100 -1.21625100

