%chk=ts_freq.chk
%nprocshared=4
#P wB97X/6-31G(d) opt(ts,calcall,noeigentest,nomicro,maxcycles=150) freq

GSM eqV2 pure Gaussian calcall TS opt+freq: rxn7884

0 1
C  -2.36369000 -0.20685200 -1.36023200
C  -1.27688200 -0.05457800 -0.29800100
C  -0.23723200  0.99088200 -0.69947600
C   0.85877700  1.27493100  0.26751900
O   0.87418300  0.64982300  1.35721700
C   2.49178400  2.22944500  0.85903500
O   3.20649800  2.88070600  0.21711300
H  -2.91104300  0.73314200 -1.49999100
H  -3.08944500 -0.97694700 -1.08022000
H  -1.93589900 -0.48467100 -2.33074600
H  -0.77804900 -1.01494900 -0.12379200
H  -1.72530200  0.23682900  0.65889500
H   0.25000700  0.73525100 -1.65225300
H  -0.70950200  1.96587100 -0.89474100
H   1.81463600  1.19737000  1.74534800

