%chk=ts_freq.chk
%nprocshared=4
#P wB97X/6-31G(d) opt(ts,calcall,noeigentest,nomicro,maxcycles=150) freq

GSM eqV2 pure Gaussian calcall TS opt+freq: rxn72

0 1
N   1.85763200  0.53238000 -0.47296000
C   0.46317300  0.35838700 -0.44377400
C  -0.50218200  1.44425500 -0.42302100
N  -1.62530500  0.70067300 -0.09207400
C  -1.33523500 -0.62685700  0.10715100
N  -0.08737900 -0.89965200 -0.08021700
H   2.32516700 -0.36380500 -0.41261600
H   2.17313800  1.13970800  0.27177600
H  -0.00638100  0.68454400 -1.52809300
H  -2.55471100  1.09240000 -0.07492800
H  -2.09351800 -1.35025100  0.38965100

