%chk=ts_freq.chk
%nprocshared=4
#P wB97X/6-31G(d) opt(ts,calcall,noeigentest,nomicro,maxcycles=150) freq

ReactOT exact pure Gaussian calcall TS opt+freq: rxn3934

0 1
C  -1.93778500 -0.33172342 -0.01940304
C  -0.65927917  0.39469970  0.13350418
C   0.00275033  1.42153600  0.56619480
C   1.22566410  0.96055280 -0.06932650
C   1.69851240 -0.38579866  0.21330953
O   0.61008700 -0.54965115 -0.72729164
H  -2.15259390 -0.52098000 -1.07688270
H  -1.89794660 -1.29101040  0.49507704
H  -2.71216250  0.30434720  0.39672104
H   1.70394090  1.51627280 -0.87194680
H   1.49626680 -0.79568690  1.20166480
H   2.62254570 -0.72255796 -0.24162067

