%chk=ts_freq.chk
%nprocshared=4
#P wB97X/6-31G(d) opt(ts,calcall,noeigentest,nomicro,maxcycles=150) freq

ReactOT exact pure Gaussian calcall TS opt+freq: rxn8505

0 1
C  -1.10739370  1.51963330  0.06103050
C   0.00181927  0.60559250  0.09050952
C   0.08470513 -0.81876683  0.16321984
C  -1.05513900 -1.78898500  0.24697275
C   1.45555280 -1.10612050  0.11358723
C   2.09859280  0.14502570 -0.01960428
N   1.21775000  1.16526250 -0.05730062
H  -2.12985180  1.11252760 -0.00531216
H  -0.69807625  2.32959700 -1.10347620
H  -1.02912100  2.41346570  0.67566830
H  -0.70740736 -2.80012100  0.03246358
H  -1.82041730 -1.53098960 -0.52781800
H  -1.54290240 -1.78114330  1.22896470
H   1.89437960 -2.10613250  0.12618841
H   3.17509200  0.32114896 -0.08655718
H   0.16241735  2.32000600 -0.93853640

