%chk=ts_freq.chk
%nprocshared=4
#P wB97X/6-31G(d) opt(ts,calcfc,noeigentest,nomicro,maxcycles=150) freq

ReactOT exact pure Gaussian calcfc TS opt+freq: rxn10071

0 1
C  -0.64142730  0.86488730 -0.81563383
C  -0.58288500  0.21685160  0.52453965
O  -1.63448890  0.50141805  1.34163570
C  -0.18306640 -1.22252230  0.45562550
O   0.89004580 -1.33942320 -0.48605320
C   1.50107420 -0.20521270 -0.69798020
O   1.94266600  0.54358880  0.28597102
H  -1.36877180  0.33313733 -1.45541580
H   0.25221810  1.05908190 -1.44230410
H  -0.94956780  1.91048500 -0.65755310
H   0.97186950  0.70764310  0.77925190
H  -1.38078930  0.29143056  2.26588460
H  -1.01008520 -1.85364270  0.09031853
H   0.11090825 -1.60405390  1.44286140
H   2.08230000 -0.20366888 -1.63114790

