%chk=ts_freq.chk
%nprocshared=4
#P wB97X/6-31G(d) opt(ts,calcfc,noeigentest,nomicro,maxcycles=150) freq

GSM eqV2 pure Gaussian calcfc TS opt+freq: rxn8634

0 1
C  -1.52039800  0.01132400 -0.34286400
C  -0.10383200  0.08862100 -0.87755000
N   0.20394700  1.29078600 -1.57779200
C   1.38157000  1.19518000 -0.76338900
C   0.80419500 -0.08603600  0.63193800
C   1.82922500  0.32301700  1.63783600
N   0.41590100  0.65435700  1.82464000
H  -2.21126000  0.14873800 -1.18182300
H  -1.71057100  0.78480400  0.40656700
H  -1.71230300 -0.95978600  0.12221400
H   0.19233700 -0.78410800 -1.45971700
H  -0.38050400  2.04322000 -1.21517200
H   2.05528200  0.49758800 -1.29869400
H   0.55780000 -1.14797400  0.73686600
H   2.19992800 -0.44832400  2.31088900
H   2.52045200  1.11366300  1.37380700
H   0.30979300  1.63194100  1.55235800

