%chk=ts_freq.chk
%nprocshared=4
#P Opt=(TS,CalcAll,NoEigenTest,NoMicro,MaxCycles=150) Freq External='../../../../../production/external/horm.sh'

External--CalcAll initial TS guess: rxn3837

0 1
N   2.87008050  0.87766780 -0.33309078
C   1.98936760  0.13556814 -0.35216546
C   0.86952930 -0.75998634 -0.33445820
C  -0.40415870 -0.27125860  0.05843953
C  -1.22687900  0.90079856 -0.07917446
O  -1.64203240 -0.42911620 -0.50072616
H   0.12372076 -0.91946584  1.06640100
H   0.94059813 -1.72677000 -0.81633190
H  -0.75435680 -0.70253940  1.41463710
H  -1.76882210  1.31385240  0.76804460
H  -0.99704730  1.58124960 -0.89157520

