%chk=ts_freq.chk
%mem=6GB
%nprocshared=4
#P opt(ts,calcall,noeigentest,nomicro,maxcycles=150) freq External='../../../../../production/external/horm.sh'

ReactOT exact C eqV2-EFH calcall TS opt+freq: rxn7492

0 1
C   2.86257600  0.24954353  0.06543849
C   1.56678510 -0.55223894  0.15285233
C   0.33781424  0.31691077  0.44811693
C  -0.89218580 -0.53793830  0.47693320
C  -1.51048200 -0.78640310 -0.90978800
O  -2.85495140 -0.44971704 -0.67941946
C  -2.67358060  0.55774290  0.25607720
H   2.80870490  0.98315346 -0.75655730
H   3.07045030  0.80673736  0.97592187
H   3.72379040 -0.40734452 -0.15839404
H   1.63482610 -1.31455560  0.93413836
H   1.41038560 -1.07607170 -0.80428010
H   0.29021250  1.12139870 -0.30619523
H   0.48394927  0.80830030  1.41674540
H  -1.90342660  0.02395985  1.08629500
H  -1.42003980 -1.82010400 -1.25857690
H  -1.07891700 -0.11653997 -1.68357370
H  -2.28982730  1.49771400 -0.14331499
H  -3.56608370  0.69545245  0.88758070

