%chk=ts_freq.chk
%nprocshared=4
#P Opt=(TS,CalcAll,NoEigenTest,NoMicro,MaxCycles=150) Freq External='../../../../../production/external/horm.sh'

External--CalcAll initial TS guess: rxn8418

0 1
N  -2.44535600  0.96076200 -2.22475600
C  -1.83192700  0.51416700 -1.24522000
C  -1.72619600  0.20203400  0.23524300
C  -0.33420100 -0.43129200  0.30033900
C  -0.90874900 -1.01022200 -1.68291800
C  -1.06139500 -1.70770000 -0.39391900
C  -2.34722900 -1.21522600  0.31490600
H  -1.90165700  0.96214200  0.99774100
H   0.47981300  0.07145800 -0.22639500
H   0.02160200 -0.71258700  1.29742800
H  -0.14938500 -1.39111900 -2.36950700
H  -0.66259900 -2.70782400 -0.20451500
H  -3.28665100 -1.37533000 -0.21878500
H  -2.42220000 -1.57537900  1.34361400

