%chk=ts_freq.chk
%nprocshared=4
#P wB97X/6-31G(d) opt(ts,calcall,noeigentest,nomicro,maxcycles=150) freq

GSM eqV2 pure Gaussian calcall TS opt+freq: rxn5314

0 1
N   1.69109100  0.09811100 -1.01764700
C   0.45756600  0.03692100 -0.51755900
C  -0.34484300  1.22912400 -0.36026700
N  -1.56353000  1.14006000 -0.03327400
C  -2.12232300 -0.11762300  0.12110300
N  -1.37751000 -1.21633400  0.17698000
N  -0.11114000 -1.18643000 -0.12356000
H   2.08654400  1.00721500 -1.20282300
H   2.23043400 -0.74617500 -1.18156300
H   0.71574600 -0.26288500  1.18961800
H  -3.18088600 -0.18954100  0.34776900

