%chk=ts_freq.chk
%nprocshared=4
#P wB97X/6-31G(d) opt(ts,calcall,noeigentest,nomicro,maxcycles=150) freq

GSM eqV2 pure Gaussian calcall TS opt+freq: rxn7136

0 1
O  -1.34354200  0.42572500  0.01849600
C  -1.24199000 -0.81821000  0.27390900
C  -1.25992400 -1.72551300 -0.91663300
C   0.18778200 -1.48377900 -0.65640200
O   0.79253600 -0.50073000 -1.19285600
C   1.11448200  0.81512300 -0.02143100
O   1.47550600  0.37319900  1.03845700
H  -0.22225600  0.90480200  0.06563300
H  -1.17495900 -1.19249500  1.29444100
H  -1.63785900 -2.74012400 -0.78233000
H  -1.60610700 -1.20549700 -1.80650700
H   0.72753300 -2.19639300 -0.02451000
H   1.65408000  1.57022600 -0.61673100

