%chk=ts_freq.chk
%nprocshared=4
#P wB97X/6-31G(d) opt(ts,calcfc,noeigentest,nomicro,maxcycles=150) freq

ReactOT exact pure Gaussian calcfc TS opt+freq: rxn7895

0 1
C  -1.64392380 -0.22414404 -0.35860140
C  -0.89486945  0.18293524  0.74749050
N  -0.55781810  1.42947700  0.97054610
O  -0.07069585 -0.78271776  1.23258900
C   1.19495580 -0.86406463  0.52020633
C   1.09531960  0.18438846 -0.60677075
O   1.01834920  1.41531790 -0.22021951
H  -2.20847420  0.47226974 -0.96292996
H  -0.05032690 -0.16360101 -1.05353560
H  -1.85201450 -1.28695310 -0.48601145
H  -1.04038750  2.08897260  0.36096507
H   2.00867870 -0.61340576  1.20188080
H   1.29652400 -1.88263550  0.15312204
H   1.70468300  0.04416080 -1.49873130

