%chk=ts_freq.chk
%nprocshared=4
#P Opt=(TS,CalcAll,NoEigenTest,NoMicro,MaxCycles=150) Freq External='../../../../../production/external/horm.sh'

External--CalcAll initial TS guess: rxn548

0 1
C   2.02170870  0.11075235  0.02217243
C   0.53005860 -0.02742210 -0.08903225
C  -0.06800403 -1.13884520 -0.65305540
N  -1.54104720 -0.79207510 -0.37952116
C  -1.67356200  0.48358545  0.16177924
C  -0.41093156  0.95663300  0.34682247
H   2.34835860  0.19730242  1.06978260
H   2.50387840 -0.77115595 -0.41017535
H   2.39117310  0.99896480 -0.51177980
H  -1.03778840 -1.62630960  0.23172070
H  -2.25106240 -1.22307570 -0.95456415
H  -2.64317510  0.90347475  0.39044110
H  -0.16960675  1.92817090  0.77540964

