%chk=ts_freq.chk
%nprocshared=4
#P wB97X/6-31G(d) opt(ts,calcfc,noeigentest,nomicro,maxcycles=150) freq

ReactOT exact pure Gaussian calcfc TS opt+freq: rxn1983

0 1
C  -1.44334550 -0.49474010 -0.39346775
C  -0.29670843 -0.22713971  0.53261346
O   0.79469560 -1.20289600  0.39303160
C   1.67154440 -0.17876443  0.23203130
C   0.74135786  0.86615276  0.18698053
O   0.73367000  2.20644280  0.14940159
H  -2.17397210  0.32038290 -0.31509563
H  -1.10851840 -0.56875740 -1.43455740
H  -1.94700550 -1.43306020 -0.14170232
H  -0.59367560 -0.17278653  1.59054520
H   0.88736710  1.24545980 -0.91448283
H   2.73459050 -0.36029404  0.11470229

