%chk=ts_freq.chk
%nprocshared=4
#P wB97X/6-31G(d) opt(ts,calcfc,noeigentest,nomicro,maxcycles=150) freq

ReactOT exact pure Gaussian calcfc TS opt+freq: rxn1713

0 1
C   2.33915640  0.19169039  0.37284005
C   0.98417070  0.01900521 -0.18645471
C   0.25663748 -0.60270300 -1.07774650
C  -0.98729396  0.01196022 -0.67696660
C  -2.07486630 -0.79133004 -0.02991009
O  -0.17271577  0.85568994  0.61086430
H   3.00338530 -0.45591354 -0.20209846
H   2.38442090 -0.07812776  1.42853510
H   2.68042700  1.22496220  0.26244643
H  -1.33620150  0.82720290 -1.31258880
H  -1.65098560 -1.47244600  0.71136190
H  -2.82517360 -0.16009584  0.45415890
H  -2.54910500 -1.38446260 -0.81098120
H  -0.05185614  1.81456770  0.45653975

