%chk=ts_freq.chk
%nprocshared=4
#P wB97X/6-31G(d) opt(ts,calcall,noeigentest,nomicro,maxcycles=150) freq

GSM eqV2 pure Gaussian calcall TS opt+freq: rxn1770

0 1
O   3.44247600  0.14378900 -2.14072000
C   2.29391500 -0.01538700 -1.82088600
N   1.72008400  0.60154300 -0.70469700
C   0.40827300  0.65439200 -0.56259900
C  -0.69494200  0.68237900  0.38284900
C  -0.81318500 -0.03337100 -0.97502400
H   1.58033300 -0.64815000 -2.38378800
H   1.84161700  1.71469100 -0.37736000
H   0.97864400  2.66911500 -0.30304100
H  -0.57999700  0.08178800  1.28346400
H  -1.23758200  1.61221800  0.50759500
H  -1.43845200  0.43897100 -1.72842000
H  -0.79046200 -1.12146200 -1.01783800

