%chk=ts_freq.chk
%nprocshared=4
#P wB97X/6-31G(d) opt(ts,calcfc,noeigentest,nomicro,maxcycles=150) freq

ReactOT exact pure Gaussian calcfc TS opt+freq: rxn2271

0 1
C   1.47834650 -0.92562510 -0.22212175
C   0.37626627 -0.33865058  0.66138583
C   0.17084937  1.18188370  0.44668280
C  -0.96372500  1.05813920 -0.56410533
C  -1.36762760 -0.32094562 -0.05453952
O  -1.55688400 -1.37503720 -0.84346807
H   1.54575420 -2.01628280 -0.15600339
H   1.31209930 -0.67423700 -1.27661400
H   2.43789530 -0.50525840  0.07391494
H   0.42568510 -0.67365760  1.69667390
H  -0.15151350  1.65831350  1.37892940
H   1.07322070  1.69956760  0.09977230
H  -1.74304210  1.82127170 -0.52826610
H  -0.61197233  0.93707514 -1.59142530
H  -1.93485800 -0.26224400  0.89431170
H  -0.49049450 -1.26431250 -0.01512761

