%chk=ts_freq.chk
%mem=6GB
%nprocshared=4
#P Opt=(TS,CalcAll,NoEigenTest,NoMicro,MaxCycles=150) Freq External='../../../../../production/external/horm.sh'

External--CalcAll initial TS guess: rxn8125

0 1
C  -1.90586200 -0.28133935  0.19708204
C  -0.58060354 -0.27160048 -0.55323887
C   0.19181046  1.06181900 -0.51804537
C   1.51177180  0.80984646  0.22103605
O   1.86281310 -0.52367806 -0.17993689
C   0.33700845 -1.29372780  0.06889866
N   0.60858540 -2.17350600  0.84678610
H  -2.60576440  0.42633715 -0.24708886
H  -1.75497060  0.00671979  1.24500550
H  -2.35568120 -1.29185320  0.18604651
H  -0.75491300 -0.57317860 -1.59062830
H   0.41998586  1.38371000 -1.53778090
H  -0.38974010  1.85281460 -0.03595140
H   1.36918400  0.82815250  1.30711010
H   2.29338150  1.50147020 -0.06601666
H   1.75299420 -1.46198630  0.65672237

