%chk=ts_freq.chk
%nprocshared=4
#P wB97X/6-31G(d) opt(ts,calcfc,noeigentest,nomicro,maxcycles=150) freq

ReactOT exact pure Gaussian calcfc TS opt+freq: rxn9963

0 1
C   2.61782530 -0.38263053 -0.76568455
N   1.26100500  0.09281885 -0.82926820
C   0.44247204 -0.14369744  0.25729465
O   0.79351366 -1.19521580  0.95139820
N  -0.91760916  0.04800654 -0.03859467
C  -1.81826170 -0.87947420  0.59836250
C  -1.39689900  1.39365070 -0.16464720
H   3.09012440 -0.20996109  0.20826562
H   2.57018570 -1.46822930 -0.88966054
H   3.18199940  0.04843591 -1.57992820
H   0.88845384  0.82435364  0.68078600
H  -2.01937370 -0.62649330  1.65267630
H  -1.35728630 -1.86779460  0.58312690
H  -2.75612800 -0.89850960  0.03610748
H  -0.71335370  1.93284600 -0.83439540
H  -2.38436460  1.38545100 -0.64426870
H  -1.48230360  1.94644340  0.77842970

