%chk=ts_freq.chk
%nprocshared=4
#P wB97X/6-31G(d) opt(ts,calcall,noeigentest,nomicro,maxcycles=150) freq

ReactOT exact pure Gaussian calcall TS opt+freq: rxn2422

0 1
C  -1.79743920 -0.91632414 -0.10921659
O  -0.91209346  0.00841896  0.48714876
C  -0.78348255  1.28255010 -0.36182234
C   0.66505700  1.51881330 -0.11770432
C   0.82691705  0.07401319 -0.37388435
C   1.54855010 -0.88190410  0.52536050
H  -1.72900010 -1.87115590  0.41650793
H  -1.58523010 -1.04938050 -1.17621370
H  -2.81954100 -0.51541210 -0.01765872
H  -1.47757760  2.03454850  0.01833155
H   1.04983540  1.84592990  0.84951000
H   1.11001130  2.10435940 -0.93950910
H   0.67243254 -0.26342356 -1.38626330
H   1.15848700 -1.90364970  0.41963303
H   1.47484200 -0.58454970  1.56868640
H   2.59823130 -0.88283354  0.19709417

