%chk=ts_freq.chk
%nprocshared=4
#P wB97X/6-31G(d) opt(ts,calcall,noeigentest,nomicro,maxcycles=150) freq

ReactOT exact pure Gaussian calcall TS opt+freq: rxn8149

0 1
C   1.91230570 -0.09644807  0.71091807
C   0.54993606  0.39864612  0.41357990
C  -0.46711080 -0.65629510 -1.19441150
C  -0.80905265 -0.13928549  0.18379176
O  -1.50083820 -0.81127650  1.20026730
C  -1.06599350  1.33454260 -0.27387276
O   0.28808653  1.66081860  0.18483709
H   2.67828420  0.54693200  0.29321226
H   2.00324700 -1.11888240  0.34434545
H   2.04061170 -0.13606651  1.80339260
H  -1.32073040 -0.88161750 -1.83127530
H   0.27720928 -1.46235860 -1.25672330
H  -2.14466830 -1.37885180  0.76072675
H  -0.64194286  0.70735420 -1.46050690
H  -1.79934370  2.03278850  0.12171865

