%chk=ts_freq.chk
%nprocshared=4
#P Opt=(TS,CalcAll,NoEigenTest,NoMicro,MaxCycles=150) Freq External='../../../../../production/external/horm.sh'

External--CalcAll initial TS guess: rxn7764

0 1
C  -1.69157600 -0.72620200  0.68367300
C  -1.11014000  0.05747800 -0.29753900
C  -1.08297600  0.34717900 -1.73749200
N  -1.15196200  1.38739300 -0.69904300
C   0.99946800 -0.48317100  0.26152200
O   0.72575100 -1.37090100  1.18848000
N   2.26092600 -0.06564800  0.34273700
H  -2.70097100 -0.58599000  1.06124500
H  -1.64835600 -1.77924500  0.35821400
H  -0.31148000 -1.01144100  1.42026500
H  -0.16313600  0.33284900 -2.31498600
H  -1.98712100  0.09705600 -2.29687300
H  -2.04050500  1.86221900 -0.55694300
H   2.59706800  0.60893600 -0.32739900
H   2.91473000 -0.42958700  1.03006700

