%chk=ts_freq.chk
%nprocshared=4
#P wB97X/6-31G(d) opt(ts,calcfc,noeigentest,nomicro,maxcycles=150) freq

ReactOT exact pure Gaussian calcfc TS opt+freq: rxn7961

0 1
O  -1.99080180 -1.03964800  1.65118720
C  -0.99037826 -0.92263170  0.97944600
C  -0.54201496  0.39010704  0.41188430
C   0.93555700  0.63779000  0.36755052
C   0.19018060  0.45218587 -0.93552280
C  -0.06297192 -0.87074610 -1.91507730
N   1.09165500 -0.89948267 -1.66494540
H  -0.32757849 -1.78532660  0.75739650
H  -1.21936330  1.20897250  0.59430945
H   1.59147930 -0.16118206  0.69107366
H   1.28293530  1.64324550  0.59258860
H   0.04130178  1.34671620 -1.52989040

