%chk=ts_freq.chk
%nprocshared=4
#P Opt=(TS,CalcAll,NoEigenTest,NoMicro,MaxCycles=150) Freq External='../../../../../production/external/horm.sh'

External--CalcAll initial TS guess: rxn7130

0 1
O  -0.76436940  1.23906970  0.63503820
C  -0.85676620 -0.16704640  0.59682703
C  -1.31208920 -0.67684186 -0.72715810
C   0.31844106 -0.98201960  0.11205457
O   1.22754400 -0.18232135 -0.65554790
C   1.98546170  0.70239455 -0.00358900
O   1.92792140  1.03652070  1.15523930
H  -0.12034964  1.46076790  1.30515430
H  -1.35965720 -0.61149985  1.45951870
H  -2.11073060 -1.41234080 -0.75146530
H  -1.30512560  0.05626369 -1.52996590
H  -0.38273856 -1.52143700 -0.88293700
H   2.75245830  1.05849040 -0.71316870

