%chk=ts_freq.chk
%nprocshared=4
#P wB97X/6-31G(d) opt(ts,calcfc,noeigentest,nomicro,maxcycles=150) freq

ReactOT exact pure Gaussian calcfc TS opt+freq: rxn7436

0 1
O  -1.57555930 -0.15613955  1.52824030
C  -1.44030270 -0.74091300  0.25837395
C  -0.99046063  0.29664126 -0.81362630
C   0.42995400 -0.22674091 -0.57687920
C   1.67030810  0.80397004 -0.31429937
N   1.05741910  1.47661140  0.76275220
C  -0.05457564 -1.33108100  0.17262225
H  -0.94552360  0.57993130  1.56227340
H  -2.30874060 -1.36432830  0.03456051
H  -1.12582140  1.33106170 -0.49453232
H  -1.38129730  0.15594220 -1.83170620
H   1.81817750  1.38811760 -1.21371640
H   2.57314300  0.20007770 -0.11608011
H   1.34440800  1.00821170  1.60703900
H   0.48371770 -1.23189580 -1.19017160
H   0.44515370 -2.18946650  0.62514985

