%chk=ts_freq.chk
%nprocshared=4
#P wB97X/6-31G(d) opt(ts,calcfc,noeigentest,nomicro,maxcycles=150) freq

ReactOT exact pure Gaussian calcfc TS opt+freq: rxn2909

0 1
C   2.10522870 -0.00295833 -0.03301641
O   0.98373970  0.07849090  0.85058040
C  -0.67268500  0.16669203  0.04794971
C  -0.73851580  1.56752360  0.08204562
C  -0.85718894 -1.02076360 -0.81340220
C  -1.45390340 -0.99264956  0.58084750
H   3.00276140  0.20353922  0.52488730
H   2.15124440 -0.99678160 -0.47811890
H   2.01985800  0.73799944 -0.84713780
H  -0.63252510  2.10133930 -0.85915613
H  -1.35077570  2.04845360  0.84599580
H   0.53120226  1.17869460  0.74160814
H  -1.51698740 -0.89531195 -1.67569470
H  -0.03804210 -1.71546000 -0.98959510
H  -1.00571540 -1.62585760  1.33723450
H  -2.52769520 -0.83295006  0.68497235

