%chk=ts_freq.chk
%nprocshared=4
#P wB97X/6-31G(d) opt(ts,calcall,noeigentest,nomicro,maxcycles=150) freq

ReactOT exact pure Gaussian calcall TS opt+freq: rxn9952

0 1
C   2.76795980 -0.07851939  0.30334643
C   1.52967850  0.35461350 -0.46310717
C   0.27272700  0.06471382  0.36893076
C  -1.03630020  0.88643710 -0.53974557
C  -2.06185480  0.25817800  0.20794377
C  -2.14680670 -1.12684540  0.10981026
O  -0.00132017 -1.19117030  0.52272916
H   2.87538960  0.53592910  1.20920930
H   2.68731260 -1.12253420  0.60660170
H   3.67308430  0.04272567 -0.30255878
H   1.58891950  1.43781940 -0.65964836
H   1.46826410 -0.17944310 -1.40427140
H   0.29097074  0.66229910  1.29058670
H  -0.99072250  1.97446110 -0.52176744
H  -0.87957734  0.50133690 -1.55440060
H  -3.10739350 -0.39117718 -0.38386660
H  -2.52214480  0.74131984  1.07252730
H  -2.59408900 -1.71515350  0.90980285
H  -1.81409680 -1.65499040 -0.77212250

