%chk=ts_freq.chk
%nprocshared=4
#P Opt=(TS,CalcAll,NoEigenTest,NoMicro,MaxCycles=150) Freq External='../../../../../production/external/horm.sh'

External--CalcAll initial TS guess: rxn7430

0 1
O  -2.37256700 -1.36888830  0.75240980
C  -1.39773330 -0.70843210  0.03069836
C  -0.63762814  1.45725240 -0.17031969
C   0.52339137  0.54205680 -0.05186209
C   1.69084190  0.51989920 -0.98482310
N   1.79869100  1.17344700  0.31395236
C   0.01422700 -0.72647250  0.59263720
H  -2.35278840 -1.05218570  1.66221620
H  -1.47275510 -1.03336080 -1.00162770
H  -1.66521320  0.48800793  0.10172097
H  -0.88513760  1.59140290 -1.27624510
H   1.67936730  1.19631280 -1.83533570
H   2.21173330 -0.42527196 -1.14135050
H   2.30355980  0.59421980  0.99014497
H   0.58039110 -1.63205970  0.33433348
H  -0.01837915 -0.61592776  1.68345070

