%chk=ts_freq.chk
%nprocshared=4
#P wB97X/6-31G(d) opt(ts,calcfc,noeigentest,nomicro,maxcycles=150) freq

ReactOT exact pure Gaussian calcfc TS opt+freq: rxn9555

0 1
N   1.77508260 -1.95710060  0.43917194
C   1.05018510 -0.94865894  0.32436016
O   1.50823840  0.31610858 -0.20168911
C   0.52193534  1.21069970 -0.06156386
C  -0.75456315  0.65529450  0.31921744
C  -1.27307980 -0.49365458 -0.53626925
C  -0.40066603 -0.79700890  0.66524684
H   2.73094680 -1.74626560  0.16315812
H  -0.77764280  2.39668320 -0.89014580
H   0.85826100  2.21185450  0.15396070
H  -1.27417850  1.82335770 -0.01831275
H  -0.87264950 -0.63941590 -1.51350000
H  -2.33064000 -0.72014130 -0.38875368
H  -0.76122950 -1.31175210  1.54511920

