%chk=ts_freq.chk
%mem=6GB
%nprocshared=4
#P Opt=(TS,CalcAll,NoEigenTest,NoMicro,MaxCycles=150) Freq External='../../../../../production/external/horm.sh'

External--CalcAll initial TS guess: rxn7569

0 1
C  -1.99219480  0.67009854  1.15912640
C  -1.63326040 -0.59913313  0.50684994
N  -0.62967120 -0.12349752 -1.35119060
C   0.48812860 -0.15793037 -0.68222630
O   0.44551570 -0.42137167  0.54115130
O   1.66612920  0.09045000 -1.30149100
C   2.82195280 -0.02336872 -0.50044800
H  -2.04352210  1.49435190  0.45361888
H  -2.99498410  0.53846794  1.61179420
H  -1.28239100  0.95267320  1.95083730
H  -1.30549010 -1.42618010  1.12991620
H  -2.34604400 -0.92620856 -0.24362352
H  -0.58193900  0.08387238 -2.35075240
H   3.66058590  0.21333627 -1.15635000
H   2.79947970  0.67336640  0.33900476
H   2.92770460 -1.03892650 -0.10621705

