%chk=ts_freq.chk
%nprocshared=4
#P wB97X/6-31G(d) opt(ts,calcfc,noeigentest,nomicro,maxcycles=150) freq

ReactOT exact pure Gaussian calcfc TS opt+freq: rxn7855

0 1
C  -0.22785700 -1.42270890  0.61057180
C  -0.41251260 -0.14488979 -0.24901381
O  -1.05972730 -0.37516385 -1.47330080
C  -0.88206560  1.13739630  0.40151164
O  -0.61351067  2.21857550 -0.47662970
C   0.95541650 -0.51279350 -0.10830884
C   2.26593140 -0.73178850 -0.00544472
H  -0.64172316 -2.28849120  0.10990469
H  -0.46043270 -1.32190920  1.66693910
H   1.19716740 -1.61602490  0.59709436
H  -1.06312170  0.49784680 -1.89506160
H  -0.40418285  1.26080300  1.39224830
H  -1.97013560  1.13363370  0.52513146
H   0.35177293  2.26668950 -0.53946290
H   2.96498080 -0.10117540 -0.55617890

