%chk=ts_freq.chk
%nprocshared=4
#P wB97X/6-31G(d) opt(ts,calcfc,noeigentest,nomicro,maxcycles=150) freq

ReactOT exact pure Gaussian calcfc TS opt+freq: rxn3994

0 1
O   0.14550267 -1.40941540 -1.19858590
C   0.01994123 -0.31878752 -0.38960347
C  -1.09043160 -0.04982198  0.53876096
C  -0.72362940  1.32559720 -0.00300890
O   0.56484437  1.57910040  0.51968306
C   1.23676160  0.35961032  0.22969049
H  -0.53132194 -2.05242850 -0.97864220
H  -2.06683920 -0.39963582  0.21078016
H  -0.93093926 -0.16455285  1.60688340
H  -0.31610525  0.69537850 -1.16388700
H   1.65480390 -0.13149516  1.10970030
H   2.03741300  0.56645083 -0.48177090

