%chk=ts_freq.chk
%nprocshared=4
#P wB97X/6-31G(d) opt(ts,calcfc,noeigentest,nomicro,maxcycles=150) freq

ReactOT exact pure Gaussian calcfc TS opt+freq: rxn4202

0 1
C   1.83878270  0.99582400  0.30843430
O   1.50191470 -0.17428630  1.02138900
C   0.75783460 -0.41217730 -0.15121578
C  -0.69366330 -0.64800150  0.17167130
C  -1.68810360  0.41164470  0.08581525
O  -1.57540550 -0.57477280 -0.93337834
H   0.76128600  0.61177550 -0.73353386
H   2.69051340  0.67980360 -0.34447950
H   1.21038800 -1.17703060 -0.79516120
H  -0.84283924 -1.48609550  0.84783380
H  -1.37275150  1.42074530 -0.17646864
H  -2.58795620  0.35257095  0.69909360

