%chk=ts_freq.chk
%nprocshared=4
#P wB97X/6-31G(d) opt(ts,calcall,noeigentest,nomicro,maxcycles=150) freq

GSM eqV2 pure Gaussian calcall TS opt+freq: rxn7638

0 1
O   1.63988900 -1.15053100 -1.43901700
C   1.15016200 -1.05383700 -0.12556400
C   0.35747000  0.18067900  0.12587200
C  -1.04519100 -0.09317200 -0.30008400
C  -1.13244200 -1.49316400 -0.81448200
C  -0.04652500 -1.99167800  0.15646100
N  -0.64117700 -0.30740800  1.11264600
H   2.27588200 -1.87253100 -1.48367800
H   1.94678900 -1.19137700  0.62019900
H   0.74540100  1.18799400  0.24704400
H  -1.74031400  0.72044600 -0.50251000
H  -0.85817800 -1.64633500 -1.86155300
H  -2.10591400 -1.95272100 -0.61075500
H  -0.50684300 -1.53180300  1.33770700

