%chk=ts_freq.chk
%nprocshared=4
#P Opt=(TS,CalcAll,NoEigenTest,NoMicro,MaxCycles=150) Freq External='../../../../../production/external/horm.sh'

External--CalcAll initial TS guess: rxn2681

0 1
N   1.62942720 -0.41952586 -0.77729416
C   1.89642610  0.25950998  0.15453870
C   0.25410262  0.58460400 -0.07156695
C  -0.87845950 -0.35146250 -0.30360654
N  -0.55648446  0.16037047  1.03664720
H   0.20675828  1.61773610 -0.39165490
H  -1.79031670  0.05585675 -0.74041880
H  -0.66112390 -1.38554240 -0.53313700
H  -0.10032964 -0.52154650  1.62649250

