%chk=ts_freq.chk
%nprocshared=4
#P wB97X/6-31G(d) opt(ts,calcall,noeigentest,nomicro,maxcycles=150) freq

ReactOT exact pure Gaussian calcall TS opt+freq: rxn1175

0 1
C  -2.05986800 -0.06598171  0.16043676
C  -1.12171350  0.67817100 -0.46245152
C   0.06905765  0.97653246 -0.79327070
C   0.91666454  0.00777225 -0.09464607
O   0.45418602 -0.93419653  0.62540245
N   2.23965500  0.13800567 -0.21169870
H  -2.61517830 -0.79517466 -0.42576304
H  -2.58940120  0.33224458  1.01831280
H  -0.74581474 -0.75899460  0.60450220
H   2.85019610 -0.48463076  0.31590393
H   2.60221650  0.90625226 -0.73672810

