%chk=ts_freq.chk
%nprocshared=4
#P wB97X/6-31G(d) opt(ts,calcfc,noeigentest,nomicro,maxcycles=150) freq

GSM eqV2 pure Gaussian calcfc TS opt+freq: rxn8730

0 1
O   0.68760800  2.15567000  0.73802700
C   0.57492200  1.00182700  0.71588500
O  -1.25495000  0.43602000 -0.22740100
C  -1.52824100 -0.15805700  0.83837800
C   0.61085500 -0.29729200  1.16808500
C   1.10868400 -1.58505300  0.75381700
O   1.63527300 -0.88998900  1.90404800
H  -1.75218500 -1.24192500  0.84546500
H  -1.82317100  0.37660500  1.75220900
H   1.80942100 -1.66470100 -0.07150400
H   0.50313500 -2.47029500  0.95316800

