%chk=ts_freq.chk
%nprocshared=4
#P Opt=(TS,CalcAll,NoEigenTest,NoMicro,MaxCycles=150) Freq External='../../../../../production/external/horm.sh'

External--CalcAll initial TS guess: rxn6777

0 1
C   1.38008900  0.00979300 -0.25977400
N   0.09222200  0.29940200  0.40613100
C  -0.97221300  0.47483800 -0.42343000
O  -0.69370400  0.59340600 -1.61392300
N  -2.29162400  0.69550600  0.24101700
C  -1.19727600 -0.00256200 -0.09924100
N   0.26032700 -0.16741400 -0.40777400
H   1.49699600  0.65382400 -1.16737600
H   1.46695200 -1.08838400 -0.57326300
H   2.21935200  0.20526300  0.43802300
H  -0.05856200 -0.03755000  1.37157400
H  -2.40378600  0.60839200  1.16125200
H   0.55745400 -1.09187800 -0.69818000
H   1.16667600  0.27554900  0.07564200

