%chk=ts_freq.chk
%nprocshared=4
#P wB97X/6-31G(d) opt(ts,calcfc,noeigentest,nomicro,maxcycles=150) freq

ReactOT exact pure Gaussian calcfc TS opt+freq: rxn4011

0 1
O   1.88820360  1.14440070 -0.51916814
C   2.03787520  0.08451713  0.25896832
C   0.23469130 -1.09832970 -0.05654807
C  -0.72171587 -0.07420989 -0.56797210
C  -1.85065900  0.39496547  0.23410523
O  -0.72979510  1.21419560  0.11323149
H   1.15388080  1.71537230 -0.16611418
H   1.54760990 -0.94993440 -0.21386775
H   1.74242450  0.23362736  1.29516720
H   0.20365440 -1.99941780 -0.67359840
H   0.05059855 -1.41576030  0.97953844
H  -0.77288490  0.03527483 -1.63944770
H  -2.02702330 -0.05708383  1.20823110
H  -2.75686030  0.77238256 -0.25252542

