%chk=ts_freq.chk
%nprocshared=4
#P Opt=(TS,CalcAll,NoEigenTest,NoMicro,MaxCycles=150) Freq External='../../../../../production/external/horm.sh'

External--CalcAll initial TS guess: rxn6748

0 1
O  -2.67676230 -0.48958167  0.60360510
C  -1.64386730 -0.14714795  0.00176495
C  -0.59769964  1.01836570  0.26396802
C   0.51125150  0.20679250 -0.17024980
C   1.84057400  0.20325622  0.47881112
O   1.68819020  0.48227980 -0.88857600
C  -0.39910236 -0.99928594 -0.41574463
H  -0.67933510  2.08267190  0.47327420
H  -1.80423490  0.51121604 -0.97718390
H   2.12970450  1.07301520  1.10148510
H   2.28956440 -0.75530890  0.73567220
H  -0.37955216 -1.33294990 -1.45656920
H  -0.27873102 -1.85332320  0.24974279

