%chk=ts_freq.chk
%nprocshared=4
#P Opt=(TS,CalcAll,NoEigenTest,NoMicro,MaxCycles=150) Freq External='../../../../../production/external/horm.sh'

External--CalcAll initial TS guess: rxn1625

0 1
C  -2.07038800 -0.10279000 -0.00732900
C  -0.79036000  0.85081600 -0.69489200
C  -0.11162300  0.20002800 -0.35433500
C   1.21443600 -0.05933900  0.10020200
C   2.39317000 -0.07986000  0.36919600
H  -1.94920300 -0.26113100  1.08375700
H  -2.31147500 -1.01922800 -0.51587700
H  -2.74425200  0.73791100  0.05611700
H   3.44070700 -0.01175200  0.53602600

