%chk=ts_freq.chk
%nprocshared=4
#P wB97X/6-31G(d) opt(ts,calcfc,noeigentest,nomicro,maxcycles=150) freq

GSM eqV2 pure Gaussian calcfc TS opt+freq: rxn4345

0 1
C   1.02418500 -1.16288500  0.52523400
C   0.14636400 -0.03028500  0.02624200
C  -1.01075700 -0.32642300 -0.98779300
C  -2.00003500  0.30527200 -0.00390600
C  -0.95938600  0.45434300  0.93050500
O  -1.12587100  0.60319200  2.19041700
H   1.60728000 -0.83663300  1.39261900
H   0.41336900 -2.01747200  0.83722500
H   1.71381500 -1.50128200 -0.25455700
H   0.74447700  0.82474700 -0.31106300
H  -0.90103700  0.20493100 -1.93803500
H  -1.14730800 -1.39549700 -1.18497100
H  -2.94263800  0.82438900 -0.13918900
H  -2.16572400  0.12547400  1.46268800

