%chk=ts_freq.chk
%nprocshared=4
#P Opt=(TS,CalcAll,NoEigenTest,NoMicro,MaxCycles=150) Freq External='../../../../../production/external/horm.sh'

External--CalcAll initial TS guess: rxn6194

0 1
O  -1.64272700  0.05659100 -0.02201600
C  -0.60646600 -0.69608100  0.54250400
C   0.68838600 -0.65213600 -0.29611100
C   1.35868400  0.98514300 -0.20526700
C   1.02765100  1.41937600 -0.32997800
C   1.68001900 -1.44096400  0.42686100
N   2.46721500 -2.01721500  1.02270800
H  -1.45749500  0.99303500  0.17291800
H  -0.37720400 -0.37023100  1.57564700
H  -0.99190300 -1.71831000  0.60553500
H   0.55295100 -1.04672700 -1.29937400
H   0.67240200  2.45961500 -0.45678800

