%chk=ts_freq.chk
%nprocshared=4
#P wB97X/6-31G(d) opt(ts,calcfc,noeigentest,nomicro,maxcycles=150) freq

ReactOT exact pure Gaussian calcfc TS opt+freq: rxn2032

0 1
O  -0.55566700 -1.10756240  1.39858260
C  -0.21141954 -0.75596070 -0.51013840
C  -1.06949880  0.38605165 -0.47847840
C   0.11667736  1.34790710 -0.42551798
C   1.03557860  0.08245135 -0.38947240
O   1.87584130 -0.12749556  0.69624346
H  -1.11156510 -1.89261870  1.51517000
H  -0.31882706 -1.76781010 -0.89684930
H  -2.00906470  0.50586520 -1.00472300
H  -1.15313710 -0.16184880  0.82844740
H   0.26159424  1.98447600 -1.30818520
H   0.20797860  1.98317910  0.45933180
H   1.65630080 -0.01062803 -1.28703620
H   1.27520840 -0.46600613  1.40262560

