%chk=ts_freq.chk
%nprocshared=4
#P Opt=(TS,CalcAll,NoEigenTest,NoMicro,MaxCycles=150) Freq External='../../../../../production/external/horm.sh'

External--CalcAll initial TS guess: rxn3277

0 1
O   1.82607800 -2.07423500  0.89983500
C   1.08136400 -1.06261700  0.70294600
N  -0.15258800 -1.43523200  0.39391000
C  -0.94822000 -0.22587600  0.22881800
C   0.03650900  0.89232200  0.45794200
C   1.24616000  0.39651700  0.74164300
H   0.53828400 -2.49053500  0.58464700
H  -1.77099300 -0.17953300  0.95480400
H  -1.39696600 -0.16467000 -0.77157800
H  -0.24396400  1.93879100  0.39191900
H   2.16501700  0.92334200  0.96175900

