%chk=ts_freq.chk
%nprocshared=4
#P wB97X/6-31G(d) opt(ts,calcfc,noeigentest,nomicro,maxcycles=150) freq

ReactOT exact pure Gaussian calcfc TS opt+freq: rxn6684

0 1
N   2.19157050  0.55849860  1.71638450
C   1.76521680  0.45414558  0.64369080
C   1.25955210  0.34903640 -0.69661015
C  -0.01096572 -0.23857707 -1.04575420
C  -1.11817650 -0.84205100  0.21641143
C  -1.12807370  0.36017210  0.91331816
N   0.10909292  1.14021990 -1.11920260
H   2.06326100  0.23098941 -1.43662670
H  -0.22013111 -0.90211326 -1.88154300
H  -1.98654690 -1.11774210 -0.37976545
H  -0.63034135 -1.69007840  0.69506150
H  -0.53793746  0.52236460  1.79241420
H  -1.75652070  1.17513530  0.58222140

