%chk=ts_freq.chk
%nprocshared=4
#P wB97X/6-31G(d) opt(ts,calcfc,noeigentest,nomicro,maxcycles=150) freq

ReactOT exact pure Gaussian calcfc TS opt+freq: rxn220

0 1
C   1.47232150 -0.40358678 -0.61383885
C   0.24364352 -0.05976632  0.16468665
C  -0.80951700 -1.00880270  0.68543530
C  -1.19609300  0.05507492 -0.29414570
O  -1.64841760  1.24289550  0.29510185
C  -0.41728202  1.80051240  0.69299990
H   1.23000470 -1.21338800 -1.30829200
H   2.28972320 -0.72351336  0.03438832
H   1.82538590  0.45857266 -1.19594140
H  -0.73664640 -2.01994700  0.27180840
H  -1.15022470 -0.92661630  1.70880570
H  -1.54841050 -0.17631531 -1.30096260
H   0.35297090  0.80473685  1.07641710
H   0.09254149  2.17014340 -0.21646266

