%chk=ts_freq.chk
%nprocshared=4
#P Opt=(TS,CalcAll,NoEigenTest,NoMicro,MaxCycles=150) Freq External='../../../../../production/external/horm.sh'

External--CalcAll initial TS guess: rxn4384

0 1
O   1.20136130 -1.43744080  0.01790551
C   0.76617590 -0.49142160  0.95550925
C   0.23221210  0.84146160  0.44596276
C  -0.20571221  0.74079420 -1.02406050
C  -1.33952990 -0.16948351 -0.51440436
C  -1.04553450  0.19702716  0.96371950
H   2.02624600 -1.11904300 -0.35000660
H   1.46447740 -0.30970350  1.77669860
H   0.68351424  1.72750030  0.90838890
H   0.50854400  0.34160890 -1.74151100
H  -0.57888484  1.70565250 -1.37551890
H  -2.34514020  0.16819046 -0.78828510
H  -1.23708090 -1.22480540 -0.76985687
H  -0.13064863 -0.97033757  1.49545870

