%chk=ts_freq.chk
%nprocshared=4
#P wB97X/6-31G(d) opt(ts,calcfc,noeigentest,nomicro,maxcycles=150) freq

GSM eqV2 pure Gaussian calcfc TS opt+freq: rxn148

0 1
C  -0.25104700 -1.58092700 -0.38583700
O  -1.13152300 -0.82365000 -1.09794000
C  -0.35497400  1.33774200 -0.64688800
C   0.85573600  0.69437500 -0.64823700
C   0.90728500 -0.70274000 -0.66832500
H  -0.50052700 -1.73340000  0.68173100
H  -0.07537400 -2.54673100 -0.84799000
H  -1.21726500  1.04531800 -0.06637700
H  -0.37448900  2.35867000 -1.01329600
H   1.78882400  1.23228700 -0.68864100
H   1.87585800 -1.21116000 -0.98185600

