%chk=ts_freq.chk
%nprocshared=4
#P Opt=(TS,CalcAll,NoEigenTest,NoMicro,MaxCycles=150) Freq External='../../../../../production/external/horm.sh'

External--CalcAll initial TS guess: rxn9790

0 1
C  -2.68201500 -0.49365900 -0.58781000
N  -1.49434400  0.29229800 -0.33732100
C  -0.33277600 -0.26638800 -0.27381900
C   0.87056900  0.52059900 -0.15195200
C   2.27103500 -0.00274300 -0.11317200
C   0.38967100  1.80015600 -0.11382700
N  -0.64158500  2.43784100 -0.34016800
H  -3.04341100 -0.31851900 -1.60939200
H  -3.48479700 -0.19533100  0.09265300
H  -2.50907300 -1.57621200 -0.47323200
H  -0.22259300 -1.35652000 -0.33798700
H   2.98200600  0.71544100 -0.53279800
H   2.33554700 -0.91763400 -0.70818100
H   2.61084200 -0.25122000  0.90555200
H   0.40641500  2.95969800  0.37302200

