%chk=ts_freq.chk
%nprocshared=4
#P wB97X/6-31G(d) opt(ts,calcfc,noeigentest,nomicro,maxcycles=150) freq

GSM eqV2 pure Gaussian calcfc TS opt+freq: rxn416

0 1
C  -0.94627500  0.69497900 -0.31345200
N   0.53196900  0.70862800 -1.08401200
C   1.48052300 -0.23681500 -0.64681700
C   2.71539200  0.28752200 -0.79117100
C   2.56315100  1.61618500 -1.35245600
C   1.24316000  1.84701200 -1.52004400
H  -0.67328600  0.81888300  0.74056200
H  -0.28424400  0.22678300 -1.60128300
H  -1.34622700  1.65110100 -0.67696900
H   1.12302000 -1.17742500 -0.25121300
H   3.64836800 -0.19238400 -0.52678600
H   3.36532800  2.30274100 -1.59082800
H   0.70021000  2.70491700 -1.89034800

