%chk=ts_freq.chk
%nprocshared=4
#P wB97X/6-31G(d) opt(ts,calcall,noeigentest,nomicro,maxcycles=150) freq

ReactOT exact pure Gaussian calcall TS opt+freq: rxn2978

0 1
C  -0.96307380 -1.17357580 -0.13505052
C   0.09429066 -0.47725746  0.67741990
C  -0.46804187  1.61583030  0.08993138
C   1.44593880 -0.48886713  0.01668777
H  -0.88906324 -1.05143670 -1.22683870
H  -0.82152050 -2.24953870  0.07474188
H  -1.97827430 -0.92535840  0.19640864
H  -0.27421197  0.75515884  0.95885205
H   0.22254616  2.40607430  0.39347365
H  -1.50716340  1.89731690  0.27335748
H  -0.30851170  1.31736180 -0.94074610
H   1.86877780 -1.48239230  0.24850078
H   2.13206650  0.24673018  0.45272964
H   1.44624100 -0.39004603 -1.07946780

