%chk=ts_freq.chk
%nprocshared=4
#P wB97X/6-31G(d) opt(ts,calcfc,noeigentest,nomicro,maxcycles=150) freq

GSM eqV2 pure Gaussian calcfc TS opt+freq: rxn5294

0 1
C  -0.87727400  0.88719900 -0.04916100
C  -0.61866900 -0.47505900  0.12138300
C  -1.80004200 -1.39521400  0.31786600
N   0.20068300 -2.00404300 -1.61852800
C   0.78356700 -1.28860400 -0.65304200
C   1.67817200 -0.15385800 -0.96519100
N   2.33915500  0.76482100 -1.21161800
H  -0.42118300  0.25468100  1.09348000
H  -1.88949200  1.27854800 -0.19072200
H  -0.05147800  1.59353200 -0.13748400
H  -2.64596900 -1.10957300 -0.31958600
H  -1.51843500 -2.41682600  0.05833600
H  -2.13562400 -1.35477800  1.35992100
H   0.05963900 -1.41342100 -2.43995000
H   1.20174900 -1.87059600  0.17438300

