%chk=ts_freq.chk
%nprocshared=4
#P wB97X/6-31G(d) opt(ts,calcall,noeigentest,nomicro,maxcycles=150) freq

ReactOT exact pure Gaussian calcall TS opt+freq: rxn1625

0 1
C  -1.40561830 -0.24309218  0.04682886
C  -1.03078870  1.49058230  0.05979621
C   0.01865286  0.80852550  0.09479389
C   1.30498020  0.30345213 -0.02383448
C   2.42949580 -0.11865600 -0.13602707
H  -0.79663783 -1.07501850  0.46474022
H  -1.66168760 -0.50835484 -0.96633360
H  -2.26864270 -0.13898392  0.68570400
H   3.41024640 -0.51845470 -0.22566801

