%chk=ts_freq.chk
%nprocshared=4
#P Opt=(TS,CalcAll,NoEigenTest,NoMicro,MaxCycles=150) Freq External='../../../../../production/external/horm.sh'

External--CalcAll initial TS guess: rxn1476

0 1
C  -1.61606900 -1.25844800 -1.05910000
C  -1.39037000  0.67413400 -1.25822000
C  -0.60709100 -0.36233100 -0.73782400
C   0.37944600 -0.25045600  0.36700200
C   1.50331900  0.36649800 -0.54695400
O   0.82376800  0.87795100 -1.62728800
H  -2.00868100 -1.46641300 -2.03800800
H  -1.77281900 -2.04879700 -0.30204200
H  -1.99534600  1.36149700 -0.63883100
H  -1.40277900  0.82113900 -2.32732900
H   0.61677500 -1.22912200  0.79058300
H   0.06894300  0.44381600  1.15645800
H   2.10576300  1.12302500 -0.01318900
H   2.16790300 -0.46877300 -0.80642000

