%chk=ts_freq.chk
%nprocshared=4
#P Opt=(TS,CalcAll,NoEigenTest,NoMicro,MaxCycles=150) Freq External='../../../../../production/external/horm.sh'

External--CalcAll initial TS guess: rxn6369

0 1
C   1.41600700  0.96869300 -0.91302400
C   2.23666300 -0.22560100 -0.71787600
C   1.30659200 -1.33280600 -0.40472200
O   0.27784800 -1.15592500  0.52142400
C  -0.57795900 -0.12822100  0.07008600
C   0.01671000  0.45946500 -1.09601900
C   1.09554300 -0.59633000 -1.69397400
H   0.92743500  1.37788500  0.94422500
H   1.80447300  1.75481700 -1.56005100
H   3.30261700 -0.27493300 -0.89544000
H   1.71531000 -2.33777300 -0.43318500
H   0.11170800  1.17832700  0.96434400
H  -1.61908000 -0.45660800  0.06068800
H  -0.59231600  1.05704900 -1.76933100
H   1.13752400 -0.91791300 -2.72530000

