%chk=ts_freq.chk
%nprocshared=4
#P Opt=(TS,CalcAll,NoEigenTest,NoMicro,MaxCycles=150) Freq External='../../../../../production/external/horm.sh'

External--CalcAll initial TS guess: rxn7961

0 1
O  -3.01477200 -0.46638800  3.63769800
C  -1.94497900 -0.18585000  2.08270000
C  -0.70275300  0.76739800  0.37159300
C   0.54365600 -0.16050800 -0.53565000
C  -0.86544100  0.48042300 -1.60128700
C  -2.10357300 -0.06443600 -4.22770500
N  -3.33489500  0.45767600 -2.29067400
H  -1.97805000 -1.45294100  1.46316700
H  -0.31800700  2.00815000  0.31486300
H   0.89167100 -1.60742100 -0.46120100
H   1.77359700  0.89126100 -1.02518000
H  -0.62361200  1.15707600 -1.99428800

