%chk=ts_freq.chk
%nprocshared=4
#P wB97X/6-31G(d) opt(ts,calcfc,noeigentest,nomicro,maxcycles=150) freq

GSM eqV2 pure Gaussian calcfc TS opt+freq: rxn5849

0 1
C   1.98672200  0.09802300 -0.04153300
C   0.52020000 -0.17350900 -0.17623300
C  -0.07268900 -1.35822500 -0.06466900
C  -1.55889800 -1.44784500 -0.24947300
C  -1.81739100  0.58098700 -0.27058200
C  -0.39153600  0.99458700 -0.53603300
O  -0.16866200  2.14857100  0.26255600
H   2.16155400  0.84972300  0.73372000
H   2.39458300  0.51888700 -0.97060100
H   2.54105500 -0.80882400  0.21557600
H   0.49466500 -2.27883200  0.04300500
H  -2.13712200 -1.40695700  0.66804300
H  -1.87665700 -2.34540400 -0.79623200
H  -1.85207000 -0.64814000 -1.07103700
H  -2.58297100  0.88904300 -1.00091500
H  -0.10485600  1.34962600 -1.54532500
H  -0.48572100  1.92280100  1.14580700

