%chk=ts_freq.chk
%nprocshared=4
#P wB97X/6-31G(d) opt(ts,calcall,noeigentest,nomicro,maxcycles=150) freq

ReactOT exact pure Gaussian calcall TS opt+freq: rxn3173

0 1
O  -1.68246450  0.77129420 -0.06308588
C  -1.21563320 -0.51749647  0.26582485
C   0.26833147 -0.57470953 -0.06014621
O   0.53064030 -0.09000015 -1.32998600
C   1.01659010  0.57478166  0.53782240
O   2.17033840  0.86589440  0.07306495
H  -1.31969640  0.89411247 -0.97074350
H  -1.71133320 -1.32309730 -0.30762374
H  -1.41030360 -0.68103737  1.33091560
H   0.72936450 -1.56015860  0.15773873
H   2.07211850  0.30558932 -0.79580253
H   0.55204767  1.33482750  1.16202130

