%chk=ts_freq.chk
%nprocshared=4
#P wB97X/6-31G(d) opt(ts,calcfc,noeigentest,nomicro,maxcycles=150) freq

ReactOT exact pure Gaussian calcfc TS opt+freq: rxn677

0 1
C   1.86015510  0.84399474 -0.60658300
C   1.69092930 -0.40685293  0.18678746
C   0.60988460 -1.24007180 -0.33878183
C  -0.74849015 -1.18605180  0.18135199
C  -0.96757376  0.27831580 -0.24692418
C  -1.92433420  1.00007280  0.70232770
H   1.72715720  0.75126517 -1.67957280
H   0.02617914  0.92107800 -0.29276332
H   2.84164600  1.30758670 -0.43123308
H   1.56095150 -0.23424995  1.25102880
H   2.59322020 -1.04264560  0.05944256
H   0.76961994 -1.63419130 -1.34586160
H  -0.77681710 -1.31549750  1.27512440
H  -1.41452200 -1.90519890 -0.29895276
H  -1.37981920  0.24709725 -1.26434210
H  -2.93210030  0.55879970  0.72106040
H  -2.00906940  2.05213000  0.40553182
H  -1.52701680  1.00442020  1.72235930

