%chk=ts_freq.chk
%nprocshared=4
#P wB97X/6-31G(d) opt(ts,calcfc,noeigentest,nomicro,maxcycles=150) freq

ReactOT exact pure Gaussian calcfc TS opt+freq: rxn9658

0 1
C   2.92053840  0.44619435 -0.17243554
N   1.51983320  0.24561675 -0.36955997
C   0.69153730 -0.03503624  0.57274324
O   0.51858383 -0.24480826  1.72619600
C  -0.95506114 -0.08640138 -0.42694720
C  -1.45948870 -1.48116740 -0.10741231
C  -1.72640450  1.03173860  0.24462277
H   3.18555210  1.47749660 -0.39915305
H   3.49453740 -0.22738880 -0.79725500
H   3.15636100  0.26392720  0.88260500
H   0.26081422  0.10936700 -0.82408524
H  -1.02150450  0.06830713 -1.51813660
H  -1.41216740 -1.66264460  0.97121155
H  -0.86661430 -2.25848980 -0.59338280
H  -2.50277970 -1.59285590 -0.44349580
H  -2.77763460  1.02748080 -0.08956888
H  -1.70667180  0.90262950  1.33146820
H  -1.31943100  2.01603440  0.01258542

