%chk=ts_freq.chk
%nprocshared=4
#P Opt=(TS,CalcAll,NoEigenTest,NoMicro,MaxCycles=150) Freq External='../../../../../production/external/horm.sh'

External--CalcAll initial TS guess: rxn6216

0 1
C  -0.92981700 -1.10064100 -0.80106900
O  -0.04209200 -1.99947400 -0.13216000
C   0.41662100 -0.91949900  0.70560500
C   1.62326300 -0.31047800  0.02718000
C   1.94512300  1.01837500  0.19860300
C   0.96934700  1.95935500  0.44131300
C  -0.56476300  0.03727500  0.13584600
H  -0.70752700 -1.00981900 -1.87212200
H  -1.98221400 -1.39666200 -0.67874100
H   0.53576800 -1.16843800  1.76048800
H   2.30071700 -1.03119800 -0.42836700
H   3.00027100  1.29272100  0.19340400
H   1.18744600  2.90245300  0.95517200
H   0.14028600  2.10799600 -0.24197600
H  -1.31463800  0.59370400  0.67219400

