%chk=ts_freq.chk
%nprocshared=4
#P wB97X/6-31G(d) opt(ts,calcall,noeigentest,nomicro,maxcycles=150) freq

ReactOT exact pure Gaussian calcall TS opt+freq: rxn6369

0 1
C   0.61676960  1.00448680 -0.06879226
C   1.34532980 -0.24374773  0.13506018
C   0.35602750 -1.32221730  0.17962988
O  -0.89151233 -1.18996080  0.85564240
C  -1.49096520 -0.06890483  0.39462844
C  -0.69784180  0.60026366 -0.58035810
C   0.46924880 -0.56655700 -1.05312820
H  -0.09233781  1.34580490  1.42384830
H   1.15223380  1.72573880 -0.72469676
H   2.42087650 -0.34118120  0.26249602
H   0.71704550 -2.35360240  0.30466196
H  -0.82025370  1.06123540  1.68594040
H  -2.56688980 -0.08874606  0.53533690
H  -1.22906210  1.25698640 -1.27856270
H   0.71133155 -0.81959870 -2.07170650

