%chk=ts_freq.chk
%nprocshared=4
#P wB97X/6-31G(d) opt(ts,calcfc,noeigentest,nomicro,maxcycles=150) freq

ReactOT exact pure Gaussian calcfc TS opt+freq: rxn10019

0 1
C  -1.97471360 -0.33572105  0.13676563
C  -1.08247440 -0.34584730 -1.07875680
N  -0.43006265  0.86371170 -1.54499960
C   0.37275502 -0.20766687 -0.97391610
C   1.09098430  0.00054085  0.27311432
C   2.27800540  0.33708426  1.03942170
N   0.93053764  0.80443080  1.39715370
H  -2.94760680  0.11481410 -0.11674307
H  -1.55394650  0.25016508  0.96999340
H  -2.14079480 -1.35702820  0.50076220
H  -1.43704320 -0.97647640 -1.89929160
H  -0.55796530  1.61785920 -0.87708193
H   0.99646425 -0.72876800 -1.70870910
H   0.98656200 -1.54066790  0.90952605
H   1.87193230 -1.19355200  1.09945230
H   3.06300200  0.98405355  0.68239456
H   0.53436387  1.71306800  1.19091450

