%chk=ts_freq.chk
%nprocshared=4
#P wB97X/6-31G(d) opt(ts,calcall,noeigentest,nomicro,maxcycles=150) freq

ReactOT exact pure Gaussian calcall TS opt+freq: rxn1676

0 1
C   2.15181640  0.15341364 -0.07458777
N   0.84400040  0.50257397 -0.59528077
C  -0.28906503  0.48872283  0.13218804
O  -0.22705704 -0.07733356  1.28193680
C  -1.84219570 -0.47434935  0.50734530
O  -2.30790930 -0.66848670 -0.77376490
H   2.86260270  0.94987100 -0.29546916
H   2.08074570  0.05361718  1.01431520
H   2.51989300 -0.78174204 -0.50878440
H   0.79321850  0.86240730 -1.54053710
H  -2.40330360  0.26046434  1.08293390
H  -1.78341330 -1.47394920  0.94501030
H  -2.39933280  0.20479056 -1.17530540

