%chk=ts_freq.chk
%nprocshared=4
#P wB97X/6-31G(d) opt(ts,calcfc,noeigentest,nomicro,maxcycles=150) freq

ReactOT exact pure Gaussian calcfc TS opt+freq: rxn2920

0 1
C   2.03511800 -0.42756890 -0.12632320
C   0.63711464 -0.37987056  0.49972615
O   0.48973128  0.34457424  1.57190320
C  -0.47072828 -0.30840877 -0.45367408
C  -1.86237940 -0.33888364  0.03946298
O  -0.25627210  1.80246150 -0.44273782
H   2.27288150  0.57967424 -0.48350963
H   2.10552670 -1.12704660 -0.96064943
H   2.75926380 -0.68838290  0.65102434
H   0.29242340 -1.53295060  0.53728724
H   0.05795373  1.56613970  0.51366180
H  -0.28873765 -0.57658070 -1.49432280
H  -2.22076000 -1.37439700  0.02669436
H  -1.90016930  0.03275744  1.07179100
H  -2.53117970  0.22531286 -0.61788464
H  -1.11978600  2.20316980 -0.33244962

