%chk=ts_freq.chk
%nprocshared=4
#P wB97X/6-31G(d) opt(ts,calcfc,noeigentest,nomicro,maxcycles=150) freq

ReactOT exact pure Gaussian calcfc TS opt+freq: rxn8760

0 1
C   1.57206920  1.25109220 -0.00577051
C   0.42212590  0.68105197 -0.78557410
N   1.71171410 -0.05593747 -0.66038680
C   0.80540040 -1.22316670  0.17543127
C  -0.38822080 -0.32323470  0.00075776
C  -1.51216910  0.00131961  0.94527900
C  -1.78261290 -0.74197780 -0.32827654
H   1.54281330  1.24322570  1.07239650
H   2.16394620  2.02980420 -0.47082710
H   0.14185491  1.08757660 -1.76100780
H   1.22397420 -1.26169750  1.20559050
H   1.79796100 -1.12357010 -0.90920067
H  -1.84446370  1.02032180  1.03771160
H  -1.51778080 -0.56725425  1.88658340
H  -2.01494800 -1.80393850 -0.28641185
H  -2.32166400 -0.21361515 -1.11629490

