%chk=ts_freq.chk
%nprocshared=4
#P wB97X/6-31G(d) opt(ts,calcfc,noeigentest,nomicro,maxcycles=150) freq

GSM eqV2 pure Gaussian calcfc TS opt+freq: rxn7303

0 1
O  -1.87278800  1.32348000  0.19211500
C  -2.02744900  0.02437100 -0.37198600
C  -0.75788900 -0.63470200 -0.78536500
C   0.37021400 -0.56866800  1.04397200
C   1.29069700  0.06565300  0.03310800
O   2.48381200  0.20614300  0.11638800
C   0.37814500  0.31775500 -1.14896000
H  -2.74660100  1.71558500  0.30859000
H  -2.59836100 -0.63127400  0.30053800
H  -2.59049700  0.07500800 -1.32247700
H  -0.27021500 -1.32629900  0.26864500
H  -0.28113600  0.16446500  1.52581500
H   0.83270800 -1.26498600  1.74861000
H   0.07372800  1.37225800 -1.14910900
H   0.87545300  0.07653900 -2.09309500

