%chk=ts_freq.chk
%nprocshared=4
#P wB97X/6-31G(d) opt(ts,calcfc,noeigentest,nomicro,maxcycles=150) freq

GSM eqV2 pure Gaussian calcfc TS opt+freq: rxn1079

0 1
C  -1.11958500 -0.64888500  0.88412100
C  -0.45281700 -0.92788700 -0.41662900
C  -1.05238100 -0.47342000 -1.72498400
N   0.41183100  0.04832700  0.20313700
C   1.40130400 -0.30073000  1.15384200
O   1.45809800 -1.44240100  1.56204500
H  -2.18333700 -0.50977000  0.67549400
H  -0.01743900  0.71133900  2.05039800
H  -0.81138100 -1.16894700  1.77651500
H   0.00390200 -1.91553400 -0.49286600
H  -0.27656200 -0.40753000 -2.48557100
H  -1.54693100  0.50564600 -1.60513900
H  -1.79398500 -1.18362200 -2.06973600
H   0.27571100  1.02660500  0.00337000
H   2.24450800  0.40425400  1.08306000

