%chk=ts_freq.chk
%nprocshared=4
#P Opt=(TS,CalcAll,NoEigenTest,NoMicro,MaxCycles=150) Freq External='../../../../../production/external/horm.sh'

External--CalcAll initial TS guess: rxn670

0 1
O  -1.43181600  2.52173100  1.21285600
C  -1.36439600  1.47296800  0.75200900
C  -1.84651400 -0.49187400  0.70352500
N  -0.83472400 -1.12444200  0.16134700
C   0.39205300 -0.65111400  0.43499300
N   0.53122200  0.54610400  0.91465800
H  -1.92439200 -0.37667000  1.79425100
H  -2.79906500 -0.51959000  0.17542400
H   1.23350400 -1.26398400  0.10823500
H   1.48756700  0.88420200  0.96012600

