%chk=ts_freq.chk
%nprocshared=4
#P wB97X/6-31G(d) opt(ts,calcall,noeigentest,nomicro,maxcycles=150) freq

ReactOT exact pure Gaussian calcall TS opt+freq: rxn4618

0 1
C   2.24525760  0.09985936 -0.43454704
C   0.77833400  0.09359908 -0.82682160
C  -0.17570642 -0.39257490  0.20767474
C  -1.34364300  0.37607753  0.64482720
O  -1.10027980  1.65080560  0.42734590
N  -2.63241310 -0.19821745  0.35583600
H   2.87003520  0.43851477 -1.27162180
H   2.58380320 -0.87246770 -0.08307576
H   2.38222120  0.83094630  0.38334167
H   0.43266797  1.09056030 -1.12607630
H   0.67229396 -0.60105944 -1.69191910
H   0.14294818 -1.27253620  0.77044700
H  -1.08200900  0.17800333  1.75869170
H  -3.15705370 -0.46151972  1.18318720
H  -2.61645630 -0.95999110 -0.29728958

