%chk=ts_freq.chk
%nprocshared=4
#P wB97X/6-31G(d) opt(ts,calcfc,noeigentest,nomicro,maxcycles=150) freq

ReactOT exact pure Gaussian calcfc TS opt+freq: rxn1341

0 1
O   0.86211490 -0.59576440 -1.99870040
C   0.28848186  0.21061741 -1.11497520
C  -1.05941950 -0.16722581 -0.51612700
C  -1.01877300  0.09150667  0.97166030
O   0.20139778 -0.47715650  1.44532690
C   1.23527320 -0.04687160  0.62317353
H   1.29014780 -0.50207686 -0.73325440
H   0.46925040  1.29073180 -1.18717630
H  -1.21048630 -1.23270890 -0.70702463
H  -1.84641020  0.39731570 -1.02415670
H  -1.83687210 -0.37638405  1.51108490
H  -1.03419070  1.17783990  1.17952920
H   1.58704860  0.97260500  0.83200180
H   2.07243700 -0.74242824  0.71863770

