%chk=ts_freq.chk
%nprocshared=4
#P Opt=(TS,CalcAll,NoEigenTest,NoMicro,MaxCycles=150) Freq External='../../../../../production/external/horm.sh'

External--CalcAll initial TS guess: rxn459

0 1
C   1.55107870  0.15031743 -0.33162680
C   0.49837548  0.18553776  0.76893604
C  -0.76573557  0.95529930  0.54682020
C  -1.60315690 -0.76885340 -0.63567513
O  -0.40048630 -1.11692560 -1.05436090
C   0.64532670 -1.02516780 -0.13507480
H   1.35962800  0.76157045 -1.20409500
H   2.59657600  0.07792445 -0.04571074
H   0.84196290  0.07962263  1.79755690
H  -0.75452316  1.69394500 -0.25779650
H  -1.20476520  1.37275580  1.44251420
H  -2.12935200 -0.31937918 -1.50912310
H  -1.63694750 -0.06537431  0.38203317
H   1.00201920 -1.98127260  0.23560233

