%chk=ts_freq.chk
%nprocshared=4
#P wB97X/6-31G(d) opt(ts,calcall,noeigentest,nomicro,maxcycles=150) freq

ReactOT exact pure Gaussian calcall TS opt+freq: rxn1249

0 1
C  -1.65754930 -0.34395704  0.10135396
N  -0.27147390  0.06048187  0.01133041
C   0.94823414  1.66853640  0.16364096
N   1.92860560  0.96398050  0.07004502
C   1.84343030 -0.42207137 -0.07229628
N   0.63739550 -0.91272116 -0.12343097
H  -1.96295620 -0.97418576 -0.72818846
H  -1.79339040 -0.88371380  1.04307940
H  -2.27343500  0.56192017  0.12764572
H  -0.11273722  1.31953320 -0.43936000
H   2.71387650 -1.03780320 -0.15381972

