%chk=ts_freq.chk
%nprocshared=4
#P wB97X/6-31G(d) opt(ts,calcall,noeigentest,nomicro,maxcycles=150) freq

ReactOT exact pure Gaussian calcall TS opt+freq: rxn8151

0 1
C  -1.56184110  0.12070838  0.16835415
C  -0.12410077 -0.15662144  1.25375350
O   0.21207756 -1.42224090  1.45031070
C   1.11892690 -1.74583850  0.38042125
C   0.70427185 -0.93707450 -0.81755630
C   0.31100255  0.29309875 -0.01209190
C   0.60916320  1.70908600 -0.41199000
H  -2.03171540  1.00830900  0.56553080
H  -1.58410970  0.13985465 -0.92594800
H  -2.07302330 -0.79726285  0.46797760
H  -0.35270447  0.44298100  2.12539200
H   1.14438710 -2.83369900  0.27094615
H   1.56257810 -0.71320933 -1.46998680
H  -0.11824830 -1.30439460 -1.46507930
H   0.26478150  1.94724250 -1.42362030
H   0.19112203  2.43655320  0.27849588
H   1.72743210  1.81250770 -0.43490964

