%chk=ts_freq.chk
%nprocshared=4
#P wB97X/6-31G(d) opt(ts,calcall,noeigentest,nomicro,maxcycles=150) freq

ReactOT exact pure Gaussian calcall TS opt+freq: rxn8686

0 1
N   0.34211758  1.33488800  0.95281810
C   0.05897507  0.58050936 -0.08628820
C  -1.19710770 -0.01576342 -0.63563770
C  -0.68906110 -1.12204030  0.18420601
O   0.43072610 -1.70001010 -0.11274973
C   1.31941240 -0.23018764 -0.26444685
O   2.24750260 -0.29176295 -1.01831050
H   0.60142565  2.28612520  0.90663940
H   1.43746500  0.33346850  0.96933470
H  -2.09737700  0.48023283 -0.25650683
H  -1.23418470 -0.19136529 -1.71853520
H  -1.21989370 -1.46409420  1.07947680

