%chk=ts_freq.chk
%nprocshared=4
#P wB97X/6-31G(d) opt(ts,calcfc,noeigentest,nomicro,maxcycles=150) freq

ReactOT exact pure Gaussian calcfc TS opt+freq: rxn102

0 1
N   1.81797460 -1.06488350 -0.84585214
C   0.88709915 -0.89706560 -0.12072255
C  -0.49038620 -1.03760620  0.45161050
O  -1.22239910 -0.01303314 -0.17363560
C  -0.50648980  1.22185160 -0.07542532
O   0.84719060  0.96104060 -0.10117058
H   1.63505710  0.23594221 -0.85284560
H  -0.92766980 -1.99865070  0.18431066
H  -0.43850666 -0.94502890  1.54900380
H  -0.87298685  1.82059250 -0.90319747
H  -0.72888270  1.71684110  0.88792425

