%chk=ts_freq.chk
%nprocshared=4
#P wB97X/6-31G(d) opt(ts,calcall,noeigentest,nomicro,maxcycles=150) freq

GSM eqV2 pure Gaussian calcall TS opt+freq: rxn4864

0 1
C   2.06290000 -0.36234500 -0.15282900
N   0.88438000  0.61363600  0.92952400
C  -0.19676400  1.14758800  0.32675900
C  -1.10280600  0.12443700  0.10745400
C  -2.47807400  0.16257800 -0.47536400
N  -0.54258700 -1.03438800  0.51960200
N   0.62272900 -0.74219300  1.04724900
H   2.28653500 -1.42469900 -0.12400300
H   2.91504700  0.23329800  0.15899000
H   1.64346900 -0.04864800 -1.10595300
H  -0.27333500  2.21018000  0.14157600
H  -2.85780800 -0.85607100 -0.58297700
H  -3.16507300  0.72264700  0.16739100
H  -2.47510600  0.64341200 -1.45899800

