%chk=ts_freq.chk
%nprocshared=4
#P Opt=(TS,CalcAll,NoEigenTest,NoMicro,MaxCycles=150) Freq External='../../../../../production/external/horm.sh'

External--CalcAll initial TS guess: rxn1312

0 1
O  -1.31333090  0.29434620 -0.24645273
C  -0.34897100 -0.66178090 -0.05843208
C   1.25101470  0.58880174  0.02216101
O   0.92971620  1.71289060  0.13336813
H  -1.13479460  1.04197510  0.34039453
H  -0.38747305 -1.18540970  0.90266380
H  -0.35430200 -1.33766890 -0.91836840
H   1.35814060 -0.45315439 -0.17533429

