%chk=ts_freq.chk
%mem=6GB
%nprocshared=4
#P Opt=(TS,CalcAll,NoEigenTest,NoMicro,MaxCycles=150) Freq External='../../../../../production/external/horm.sh'

External--CalcAll initial TS guess: rxn8730

0 1
O  -0.59836770  2.26762220 -1.02360560
C  -0.26655790  1.22658610 -0.63834020
O  -1.81340470 -0.07167398 -0.75648487
C  -1.52378070 -0.43638915  0.38422212
C   0.41915080  0.33310634  0.15634600
C   1.53851060 -0.55812500 -0.12730926
O   1.61445760  0.58036685  0.76581960
H  -1.23222790 -1.47607490  0.62821996
H  -1.84641920  0.10255849  1.30981450
H   2.14694140 -0.43051586 -1.03028700
H   1.56169780 -1.53746100  0.33160484

