%chk=ts_freq.chk
%nprocshared=4
#P wB97X/6-31G(d) opt(ts,calcfc,noeigentest,nomicro,maxcycles=150) freq

ReactOT exact pure Gaussian calcfc TS opt+freq: rxn8949

0 1
C  -1.81208000 -0.58388543 -0.33419690
C  -0.55790060  0.05122703 -0.93256820
O  -0.19499391  1.17927660 -0.41454455
C   1.52534470  1.08711470  0.58963930
C   1.40373700 -0.20244497  1.01494150
O   1.34529330 -1.16568300  0.12324422
H  -2.69286080  0.01324066 -0.56122910
H  -1.72111230 -0.58402044  0.76375690
H  -1.94168750 -1.59951090 -0.69891703
H   0.46098100 -0.85938490 -0.51552165
H  -0.39744360 -0.09916623 -2.00751140
H   1.44680520  1.90086070  1.29791810
H   1.99918950  1.35673570 -0.35300606
H   1.13672780 -0.49435937  2.02799500

