%chk=ts_freq.chk
%mem=6GB
%nprocshared=4
#P Opt=(TS,CalcAll,NoEigenTest,NoMicro,MaxCycles=150) Freq External='../../../../../production/external/horm.sh'

External--CalcAll initial TS guess: rxn9526

0 1
C  -1.50966690 -1.33602230 -0.33268586
C  -0.59110450 -0.24956416 -0.86061376
C  -0.29326877  0.97767880  0.01997081
C   1.08420990  1.25876960 -0.49857566
C   0.85049820 -0.22283773 -0.37353727
N   1.32848370 -1.03710830  0.55027850
O   2.04245620 -0.43865818  1.42217000
H  -2.54871320 -0.98828600 -0.37295288
H  -1.27659870 -1.59248630  0.70280427
H  -1.43401900 -2.24194240 -0.94902110
H  -0.72064100 -0.02376620 -1.92285320
H  -1.00365030  1.64381550  0.49186862
H   0.14006248  0.59442830  1.53312860
H   1.82589210  1.66801610  0.19346263
H   1.14303800  1.68229990 -1.50744750
H   0.96302150  0.30566368  1.90400390

