%chk=ts_freq.chk
%nprocshared=4
#P wB97X/6-31G(d) opt(ts,calcfc,noeigentest,nomicro,maxcycles=150) freq

ReactOT exact pure Gaussian calcfc TS opt+freq: rxn2651

0 1
C   1.83967170  0.44588318 -0.54585140
C   0.67138870 -0.24034531  0.04775830
O  -1.03816440 -0.01111169  1.67389170
C  -1.53738860 -0.73044480  0.60329170
C  -0.69148600 -0.12727454 -0.53223246
O  -0.73713964  1.29566570 -0.29100478
H   1.51084840  1.24427130 -1.20317580
H   2.54762130  0.80219877  0.20168910
H   2.36648560 -0.31975160 -1.12946060
H   0.82505834 -0.82663160  0.94638200
H  -2.61126970 -0.57529336  0.41283760
H  -1.36551980 -1.81725070  0.68204500
H  -0.83835800 -0.34464017 -1.59200160
H  -0.94174830  1.20472490  0.72583130

