%chk=ts_freq.chk
%nprocshared=4
#P wB97X/6-31G(d) opt(ts,calcfc,noeigentest,nomicro,maxcycles=150) freq

ReactOT exact pure Gaussian calcfc TS opt+freq: rxn7890

0 1
C  -1.68005660  0.03286950 -0.58721805
C  -0.52953980  0.37204352  0.34121940
N  -0.59193754  1.30873900  1.31184640
O  -0.02203756 -0.54776110  1.10628950
C   1.90314910 -0.78562980  0.45944068
C   1.49630460 -0.23609468 -0.72936517
O   0.78051500  0.82857245 -0.74310070
H  -2.58557870 -0.19374524  0.00634324
H  -1.86899920  0.89508235 -1.23233740
H  -1.45237140 -0.83130586 -1.20683530
H  -1.45042920  1.87126240  1.12623040
H   2.08615260 -0.15415479  1.32762980
H   2.31749650 -1.78845800  0.50204384
H   1.59733210 -0.77141976 -1.68218670

