%chk=ts_freq.chk
%nprocshared=4
#P wB97X/6-31G(d) opt(ts,calcall,noeigentest,nomicro,maxcycles=150) freq

GSM eqV2 pure Gaussian calcall TS opt+freq: rxn2591

0 1
C   1.32488200  1.79284900 -0.84043700
C   0.64250300  0.68841600 -0.35682700
C  -1.49058300  0.99739300 -0.85833000
C  -1.81770500 -0.46215500 -1.11309200
C  -1.95496300  1.58413600  0.46522000
O  -1.51260300  1.78402700 -1.86035600
H   1.76515500  1.75584800 -1.83390000
H   1.80608500  2.50910200 -0.17533200
H   0.25509900  2.94536900 -1.29559400
H   0.49162900  0.56747400  0.71042300
H   0.76429000 -0.24204600 -0.91054000
H  -1.43071200 -1.11755300 -0.32692600
H  -1.43091600 -0.77366800 -2.08780400
H  -2.90899600 -0.57714800 -1.12408100
H  -1.70518000  0.96291400  1.33052400
H  -3.04696900  1.69245100  0.42905600
H  -1.53440800  2.58812800  0.59701600
H  -0.38571300  2.54180100 -1.70688900

