%chk=ts_freq.chk
%nprocshared=4
#P Opt=(TS,CalcAll,NoEigenTest,NoMicro,MaxCycles=150) Freq External='../../../../../production/external/horm.sh'

External--CalcAll initial TS guess: rxn313

0 1
N   2.78128700  0.55996700  0.15267400
C   1.66283700  0.14919900  0.00906600
O  -0.15881100 -0.14031500 -0.46743900
C  -1.95746900  0.37378000 -0.66421300
C  -1.44257900 -0.22767300  0.03301000
N  -0.19928100 -0.06600300  0.13487400
H   3.20407300  0.27581500  0.95914700
H   1.83588400 -1.27390100  1.53036900
H  -2.90915900  0.61138900 -1.19845200
H  -3.03318200  0.69276700 -0.44740800

