%chk=ts_freq.chk
%nprocshared=4
#P wB97X/6-31G(d) opt(ts,calcall,noeigentest,nomicro,maxcycles=150) freq

GSM eqV2 pure Gaussian calcall TS opt+freq: rxn8330

0 1
C   1.54632900 -0.06225600 -1.48148800
C   1.04864800 -0.88333100 -0.32204700
C   1.64704000 -0.80331200  1.03372200
N   0.35915200 -0.18307500  0.74939100
C  -0.81014000 -0.81274300  1.30411400
C  -2.12888200  0.48427100  0.18354200
O  -1.56484900  1.63786600  0.54252300
H   0.72559200  0.19156800 -2.16192600
H   2.30472100 -0.61201000 -2.04917500
H   1.99707400  0.86933200 -1.12394900
H   0.62230600 -1.85630500 -0.58171500
H   2.46423900 -0.11011200  1.22821200
H   1.63918700 -1.69843400  1.65341300
H  -0.85435700 -1.89620800  1.11543300
H  -0.87670100 -0.59442500  2.37389200
H  -1.70154900  0.04483500 -0.73544700
H  -2.06938900 -0.43859900  1.00813800
H  -0.60452500  1.61003100  0.34212000

