%chk=ts_freq.chk
%nprocshared=4
#P Opt=(TS,CalcAll,NoEigenTest,NoMicro,MaxCycles=150) Freq External='../../../../../production/external/horm.sh'

External--CalcAll initial TS guess: rxn5170

0 1
O   1.16884090 -1.57909570  0.09136296
C   0.99945450 -0.52372630 -0.66218750
C   0.65060717  0.67062485  0.23210580
C  -0.71180890  1.28035940  0.18317334
N  -0.48846680  0.06974630  0.98928100
C  -0.65046690 -1.11096500  0.23586781
O  -0.60476065 -0.94450390 -1.05471340
H   1.57053890 -0.38987324 -1.57725450
H   1.44615000  1.12460610  0.81421626
H  -1.29440440  1.16563640 -0.71866320
H  -0.87539476  2.16676830  0.78644990
H  -1.21028890 -1.92957700  0.68036160

