%chk=ts_freq.chk
%nprocshared=4
#P wB97X/6-31G(d) opt(ts,calcall,noeigentest,nomicro,maxcycles=150) freq

GSM eqV2 pure Gaussian calcall TS opt+freq: rxn326

0 1
C  -1.68775900 -0.77733000  0.23920700
C  -1.38065100  0.50853500 -0.51938200
C   0.11630900  0.82973400 -0.49595300
O   0.57694000  1.06292300  0.81687400
C   0.79892400 -0.25296000 -1.25470400
O   1.85927000 -0.89200600 -0.82449600
H  -2.76615700 -0.97410700  0.25412700
H  -1.33749400 -0.69754400  1.27260200
H  -1.20088700 -1.63865100 -0.23761300
H  -1.91907300  1.35930900 -0.09339200
H  -1.69558100  0.41541300 -1.57031100
H   0.31308100  1.72016400 -1.12311100
H   1.32151200  0.45929200  0.97064400
H   1.73741400 -0.79599600 -1.95403100

