%chk=ts_freq.chk
%mem=6GB
%nprocshared=4
#P Opt=(TS,CalcAll,NoEigenTest,NoMicro,MaxCycles=150) Freq External='../../../../../production/external/horm.sh'

External--CalcAll initial TS guess: rxn9554

0 1
N   1.91632340 -1.74999680  0.29643005
C   0.87300500 -1.06318350  0.28217906
O   1.15972220  0.63013970  0.38997325
C   0.43375270  1.47879370 -0.47248775
C  -0.77608764  0.96165836  0.12743506
C  -1.36826670 -0.28292410 -0.39898556
C  -0.49747510 -1.23579030  0.31209412
H   2.74503700 -1.24774050  0.58900964
H   0.56869690  1.26507470 -1.53436580
H   0.67984980  2.51156830 -0.22266327
H  -1.11135180  1.34504410  1.09010700
H  -1.32846210 -0.34695774 -1.49492500
H  -2.41565680 -0.38924482 -0.06147713
H  -0.87908660 -1.87644150  1.09767640

