%chk=ts_freq.chk
%nprocshared=4
#P Opt=(TS,CalcAll,NoEigenTest,NoMicro,MaxCycles=150) Freq External='../../../../../production/external/horm.sh'

External--CalcAll initial TS guess: rxn4535

0 1
C   2.87238500  0.05913200  0.81517500
C   1.43529300  0.34243700  0.39768300
C   0.42012200 -0.94039500  0.17162600
O   0.65778700 -1.91968300  0.79546800
N  -0.79487600 -0.72257900 -0.67538300
C  -1.82937600 -1.67748100 -0.48998300
H   3.45720200 -0.27147600 -0.03056800
H   3.31215500  0.96701400  1.23286200
H   2.92875700 -0.73626600  1.56509400
H   1.18457300  0.60691800  0.72806500
H   1.41202300  0.83987700 -0.57461700
H  -1.01526500  0.22364600 -1.09943800
H  -2.64458300 -1.70783400 -1.21692900
H  -1.75355800 -2.33013300  0.35125400
H  -1.93550100  0.20118500 -0.43066100

