%chk=ts_freq.chk
%nprocshared=4
#P wB97X/6-31G(d) opt(ts,calcfc,noeigentest,nomicro,maxcycles=150) freq

GSM eqV2 pure Gaussian calcfc TS opt+freq: rxn7158

0 1
C   2.19245500 -0.03682500 -0.36377300
N   1.02217100  0.19806400 -1.44300800
C  -0.29547400 -0.05119300 -1.00053000
N  -1.31588600  0.44856700 -1.67784600
N  -2.38735500  0.02342200 -0.98900900
C  -2.06599600 -0.71703200  0.09496700
C  -0.69129200 -0.79502300  0.12949900
H   1.63828900 -0.72103300 -1.50974000
H   3.01987100  0.53559900 -0.79363900
H   1.86428300  0.42106800  0.57508000
H   1.07647100  0.98966900 -2.08080900
H  -3.30507100  0.27711300 -1.31572000
H  -2.82305800 -1.12368300  0.75084400
H  -0.05717500 -1.29501200  0.84568000

