%chk=ts_freq.chk
%nprocshared=4
#P Opt=(TS,CalcAll,NoEigenTest,NoMicro,MaxCycles=150) Freq External='../../../../../production/external/horm.sh'

External--CalcAll initial TS guess: rxn9433

0 1
C  -2.01289400 -0.03210800  0.58958000
C  -0.60216500  0.01660100  0.16581400
C   0.34428600 -1.04032300  0.60082800
O   1.28052700 -0.60930900 -0.43656500
C   0.97107700  0.89352000 -0.14407800
N   1.49198900  1.96343900 -0.08617700
H  -2.64097100 -0.21755400 -0.29344700
H  -2.23978800 -0.79309400  1.34881600
H  -2.29138400  0.97682800  0.93439000
H   0.76519200 -0.88779300  1.60455200
H  -0.01529400 -2.06763000  0.46124600

