%chk=ts_freq.chk
%nprocshared=4
#P wB97X/6-31G(d) opt(ts,calcfc,noeigentest,nomicro,maxcycles=150) freq

ReactOT exact pure Gaussian calcfc TS opt+freq: rxn1216

0 1
C  -1.42662000 -0.28227845  0.38215270
C  -0.05498127  0.29923870  0.25941360
C   0.29386574  1.09521300 -0.95999260
C   1.03312330 -0.19258742 -1.26379780
C   1.18396880 -0.55550210  0.82513410
O   0.58083650  0.51994866  1.49212860
H  -1.42043650 -1.20135760  0.98041046
H  -2.07697420  0.44569167  0.89848065
H  -1.84934160 -0.50697166 -0.59672960
H   0.93646705  1.95781590 -0.74269116
H  -0.58662450  1.34966640 -1.54815000
H   0.27142880 -0.93504880 -1.57470520
H   2.24674770 -0.45231098  0.66181123
H   0.86854017 -1.54151730  1.18653500

