%chk=ts_freq.chk
%nprocshared=4
#P wB97X/6-31G(d) opt(ts,calcall,noeigentest,nomicro,maxcycles=150) freq

GSM eqV2 pure Gaussian calcall TS opt+freq: rxn5158

0 1
O   1.98691800 -2.18346500 -0.35353300
C   1.31608600 -1.23093500 -0.05626800
C   1.34815900 -0.01250400  0.61445800
C   0.30421300  1.01048500  0.32812700
N  -0.47492300  0.61213400  1.48941600
C  -1.23632100 -0.45479900  1.31116200
O  -1.29729000 -1.13047400  0.23432800
H   0.03706600 -1.40301500  0.01006000
H   2.04264200  0.16056000  1.42909500
H  -0.19823600  0.86851500 -0.63442000
H   0.66094800  2.03601100  0.42418600
H  -1.80549500 -0.78874400  2.18580200

