%chk=ts_freq.chk
%nprocshared=4
#P Opt=(TS,CalcAll,NoEigenTest,NoMicro,MaxCycles=150) Freq External='../../../../../production/external/horm.sh'

External--CalcAll initial TS guess: rxn2097

0 1
N   1.50052000  0.08185432  1.45343030
C   1.96175230  0.04050869  0.36885276
C   1.92932310 -0.10191702 -0.98489887
N  -0.20012610 -0.38902104  0.26946783
C  -1.62367080 -0.62065200  0.48325282
C  -1.14100360  0.74048170  0.16662082
H   1.79503390  0.75732875 -1.63049690
H   2.23950500 -1.03994860 -1.43752910
H  -1.91369650 -0.86810964  1.49728000
H  -2.11213800 -1.21378480 -0.28966546
H  -1.33195450  1.12884250 -0.83939420
H  -1.10354520  1.48441720  0.94307980

