%chk=ts_freq.chk
%nprocshared=4
#P wB97X/6-31G(d) opt(ts,calcall,noeigentest,nomicro,maxcycles=150) freq

GSM eqV2 pure Gaussian calcall TS opt+freq: rxn8690

0 1
N   0.83229100  0.90443200  0.82986600
C   0.01202700  0.38086200 -0.04929200
C  -2.88614300 -0.43866800 -1.33972900
C  -2.10242800 -1.19038800 -0.58860300
O  -0.86297100 -1.63962200 -1.05233000
C   0.23899400 -0.90031600 -0.79057500
O   1.32146000 -1.23276200 -1.20289500
H   0.24015300  1.65301500  0.10066100
H   1.75310000  0.44392900  0.96777400
H  -3.85945200 -0.11940600 -0.98373800
H  -2.59495500 -0.18617500 -2.35543400
H  -2.34964800 -1.52992300  0.41376200

