%chk=ts_freq.chk
%nprocshared=4
#P wB97X/6-31G(d) opt(ts,calcall,noeigentest,nomicro,maxcycles=150) freq

ReactOT exact pure Gaussian calcall TS opt+freq: rxn6714

0 1
C  -1.27474180 -1.28440770  0.57172960
N  -0.06322855 -0.65408725  0.05752961
C   1.32923600 -1.17924250  0.44722256
C   2.07827660 -0.07198586  0.09163893
C   1.28807060  1.06439590 -0.28364512
C  -0.01506074  0.70480376 -0.28318715
N  -1.20288780  1.37467810 -0.65758216
H  -2.11719000 -1.06760490 -0.07895044
H  -1.07475760 -2.36241300  0.59183276
H  -1.47140690 -0.94640315  1.58835530
H   0.48134276 -1.38968870 -0.64048990
H   3.15918760 -0.07994299  0.12899964
H   1.65425320  2.05538340 -0.54265183
H  -1.76245740  1.61433260  0.17002633
H  -1.00863600  2.22218280 -1.16082820

