%chk=ts_freq.chk
%nprocshared=4
#P Opt=(TS,CalcAll,NoEigenTest,NoMicro,MaxCycles=150) Freq External='../../../../../production/external/horm.sh'

External--CalcAll initial TS guess: rxn7511

0 1
C   2.39475700  0.48495600  0.42529600
C   1.37768700  0.20372100 -0.64309900
C   0.61787300  0.62099500 -1.07117200
C  -0.36186300 -0.64837500 -1.01368000
N  -1.37666800 -0.36458700  0.00499300
C  -2.76726100 -0.54301500 -0.37261400
C  -2.18332700  0.81604000 -0.25123000
H   3.06624100  1.21070300 -0.03903400
H   3.02392200 -0.36612500  0.72493800
H   1.90977300  0.88747900  1.30568300
H  -0.72637700 -0.58497500 -2.06148000
H   0.06038700 -1.64635400 -0.85489500
H  -3.41783700 -0.93283200  0.40872200
H  -2.96926200 -0.91617300 -1.37441700
H  -1.96553100  1.37870500 -1.16290300
H  -2.39539800  1.43254800  0.62626300

