%chk=ts_freq.chk
%nprocshared=4
#P wB97X/6-31G(d) opt(ts,calcall,noeigentest,nomicro,maxcycles=150) freq

ReactOT exact pure Gaussian calcall TS opt+freq: rxn2669

0 1
C   1.12178660  0.50265930  0.03406365
C   0.95097566 -1.01336130  0.19154485
C  -0.34543326 -1.19354530 -0.65146726
O  -1.50397880 -1.03937390  0.13537037
C  -1.39331020  0.36470510  0.44412890
C  -0.26939785  0.75376510 -0.52436996
H   1.34567770  1.04978130  0.96240870
H   1.90271460  0.75988190 -0.68661034
H   0.74707960 -1.34498730  1.20953540
H   1.76743130 -1.61109820 -0.21327180
H  -0.38809538 -0.23385178 -1.44952640
H  -1.14768270  0.55151490  1.49655190
H  -2.35125700  0.83522540  0.21929094
H  -0.43651065  1.61868460 -1.16764890

