%chk=ts_freq.chk
%mem=6GB
%nprocshared=4
#P opt(ts,calcall,noeigentest,nomicro,maxcycles=150) freq External='../../../../../production/external/horm.sh'

ReactOT exact C eqV2-EFH calcall TS opt+freq: rxn5640

0 1
C  -2.10800980 -0.75221395 -0.09901357
C  -1.54296260  0.64744955  0.05950531
C  -0.64826370  0.82375980  1.21409240
C   1.49318790  0.10929164  0.07802869
C   2.48135830 -1.00711790  0.09319269
C   0.74775800  0.43579290 -1.03161110
C  -0.50175476  1.05545450 -0.95804900
H  -1.30220080 -1.49467920 -0.09463457
H  -2.79849700 -0.98784417  0.72416335
H  -2.63446860 -0.85684370 -1.04347440
H  -2.31308910  1.40177200  0.02319719
H  -0.54981480  1.81931520  1.65360830
H  -0.37208860  0.00446846  1.86860780
H   1.50808760  0.82191724  0.88036780
H   2.58551260 -1.48467300 -0.88740150
H   2.12747050 -1.78038130  0.79625136
H   3.45922730 -0.70640620  0.46933374
H   1.15065320  0.17995569 -2.01977900
H  -0.78210630  1.77098260 -1.72638550

