%chk=ts_freq.chk
%nprocshared=4
#P wB97X/6-31G(d) opt(ts,calcfc,noeigentest,nomicro,maxcycles=150) freq

ReactOT exact pure Gaussian calcfc TS opt+freq: rxn8289

0 1
C  -1.25397150  0.41963276 -0.79885560
C  -1.56840010  0.25881810  0.66385186
C  -0.64176680 -0.82171380  1.23163450
C   0.78661100 -0.36546922  1.04913680
C   1.65377870 -0.95004654 -0.03906642
C   1.18534680  0.45106187 -0.13816684
O   0.98189950  0.85756123 -2.05037710
H  -1.77796690  1.26422890 -1.24718950
H  -0.03940497  0.66295266 -1.53761090
H  -1.56665970 -0.47229373 -1.36510120
H  -2.61981800 -0.03910798  0.80302995
H  -1.44291480  1.19510980  1.18806150
H  -0.81079215 -1.78093850  0.71186520
H  -0.83875054 -0.96519710  2.29729220
H   1.28248820 -0.03191371  1.95503160
H   1.16966950 -1.70810140 -0.65901070
H   2.71589260 -1.11067510  0.14021933
H   1.82343260  1.30389190 -0.06300461
H   0.96132790  1.83219980 -2.14174030

