%chk=ts_freq.chk
%nprocshared=4
#P wB97X/6-31G(d) opt(ts,calcall,noeigentest,nomicro,maxcycles=150) freq

GSM eqV2 pure Gaussian calcall TS opt+freq: rxn57

0 1
C  -1.63341100  0.17569300  0.70290400
C  -0.31645900  0.58321600  0.12126800
C   0.82097600  0.90142700  0.88172700
C   1.34248500 -0.37723700 -0.25835800
O   1.83986800 -0.03744500 -1.32708000
H  -2.23883500  1.06712900  0.87165400
H  -1.48657400 -0.31804600  1.68095900
H  -2.18580900 -0.47218400  0.02197000
H   0.15083000 -0.87485100 -0.28001000
H  -0.31959100  0.98679600 -0.90629400
H   1.53755100  1.71823000  0.64789300
H   0.80268100  0.54855300  1.89288400
H   1.80575700 -0.99877700  0.51261700

