%chk=ts_freq.chk
%nprocshared=4
#P wB97X/6-31G(d) opt(ts,calcfc,noeigentest,nomicro,maxcycles=150) freq

ReactOT exact pure Gaussian calcfc TS opt+freq: rxn9828

0 1
C  -0.91705740  0.80895270 -1.30423460
C  -0.85919840 -0.07212244 -0.17460740
O  -0.02339045 -1.34453550 -1.04538350
C   0.03234758  0.11185724  1.01944070
O   0.25096956 -1.13575910  1.63806240
C   1.38977800  0.72234523  0.69006450
O   2.41308160  0.18106183  1.03688110
H  -0.36202547 -0.51682930 -1.75637480
H  -1.86412470  1.01707720 -1.77192300
H  -0.19837300  1.62862130 -1.33182490
H  -1.75515510 -0.61086410  0.09318768
H  -0.23841727 -2.18158700 -0.79510830
H  -0.47133700  0.84558080  1.68687600
H   1.20684300 -1.17408800  1.80682870
H   1.39605890  1.72028930  0.20811537

