%chk=ts_freq.chk
%nprocshared=4
#P wB97X/6-31G(d) opt(ts,calcfc,noeigentest,nomicro,maxcycles=150) freq

GSM eqV2 pure Gaussian calcfc TS opt+freq: rxn1846

0 1
C   1.14414800 -0.74689300 -0.39314700
C   1.07543200  0.03752600  0.89267200
C   0.14966400  1.32654800 -0.46892800
C  -0.10818900 -0.07435700 -0.96949700
C  -1.13973500 -0.35714600  0.15863300
N   0.13195100  1.01308600  0.86739400
H   1.08241300 -1.82992400 -0.23321900
H   2.03572200 -0.50449800 -0.98138200
H   1.74438300 -0.01585100  1.75168800
H  -0.03377100  2.31376500 -0.87385100
H  -0.40683100 -0.25781100 -2.00829100
H  -1.24197500 -1.39915700  0.50198800
H  -2.08614000  0.18438500  0.16479200

