%chk=ts_freq.chk
%mem=6GB
%nprocshared=4
#P opt(ts,calcall,noeigentest,nomicro,maxcycles=150) freq External='../../../../../production/external/horm.sh'

GSM eqV2 C eqV2-EFH calcall TS opt+freq: rxn8178

0 1
C   2.56230200 -0.37829700 -0.20635200
C   1.33871700  0.50552400 -0.51024000
C   0.17975200  0.21984300  0.41023600
C  -1.96673100  0.72812700 -1.14126600
C  -2.33891000  0.01140900  0.00754300
C  -1.57727800 -1.23173300  0.60721100
O  -0.22507000 -1.08678900  0.36247800
H   2.88669800 -0.25815500  0.83751500
H   2.32128300 -1.43264600 -0.36625100
H   3.41136100 -0.11528900 -0.84823600
H   1.62632200  1.56614300 -0.38292600
H   1.02610200  0.38116700 -1.55331300
H   0.39412500  0.59003900  1.43509900
H  -1.23822700  1.51385900 -1.01573300
H  -2.60936200  0.92373600 -1.99973600
H  -3.40886600 -0.17384200  0.12939700
H  -1.55441600  0.72845200  0.75748600
H  -1.79732200 -1.26565200  1.68259900
H  -1.91109200 -2.17591900  0.15587100

