%chk=ts_freq.chk
%nprocshared=4
#P wB97X/6-31G(d) opt(ts,calcall,noeigentest,nomicro,maxcycles=150) freq

ReactOT exact pure Gaussian calcall TS opt+freq: rxn6051

0 1
C   2.03716060  1.12649620  1.29980170
C   1.03282650  0.22433311  0.66305643
C   0.86781824 -0.96864045  0.27195030
C  -0.03553075 -1.81555150 -0.32581624
C  -1.54858900 -0.58128150 -0.69640660
C  -1.43124450  0.70954340 -0.32750344
N  -1.16080200  0.36111063 -1.67695840
H   1.63560640  1.60446050  2.19717100
H   2.33346150  1.91328980  0.59636800
H   2.93109660  0.55628043  1.59912630
H  -0.53073215 -2.55416800  0.29674370
H   0.17540300 -2.13825700 -1.34135960
H  -2.35370500 -1.29032430 -0.70401160
H  -0.01966616  0.76497716  0.32461660
H  -2.02303550  1.47768800  0.15063426
H  -1.91006820  0.61004320 -2.32741210

