%chk=ts_freq.chk
%nprocshared=4
#P wB97X/6-31G(d) opt(ts,calcfc,noeigentest,nomicro,maxcycles=150) freq

ReactOT exact pure Gaussian calcfc TS opt+freq: rxn5221

0 1
C   1.28108810 -0.05621528 -1.88651800
N   0.83891320  0.27008602 -0.53139514
C   1.23475370 -0.66035990  0.51094960
C  -0.17831141 -0.61604300  0.01224394
C  -1.25446380 -0.00235086  0.80185515
O  -2.19610200 -0.74804956  1.30233740
C  -1.43781890  1.32112850  1.29181840
H   2.27312200  0.36772436 -2.05314350
H   0.56332475  0.39221427 -2.59219670
H   1.34010980 -1.13625530 -2.08275400
H   1.82328400 -1.53918710  0.22742212
H   1.46506250 -0.22605965  1.47645660
H  -0.48894410 -1.50140820 -0.55516430
H  -2.34363100  1.77079840  0.87170510
H  -2.29168700  0.31940025  1.95293690
H  -0.62869984  2.04457700  1.25344610

