%chk=ts_freq.chk
%nprocshared=4
#P wB97X/6-31G(d) opt(ts,calcfc,noeigentest,nomicro,maxcycles=150) freq

ReactOT exact pure Gaussian calcfc TS opt+freq: rxn3266

0 1
O   1.21030160 -1.03095850  0.97808427
C   1.06326270 -0.39396375 -0.12438626
N   0.02826584 -0.98052810 -0.84439890
C  -1.01965050 -0.23439011 -0.20856208
C  -0.49452445  1.10939700 -0.08604980
C   0.87698410  1.03224090 -0.11668952
H  -0.01193730 -1.97219550 -0.66428435
H  -0.09763830 -0.83826053  1.15780650
H  -2.04814530 -0.42332330 -0.49207392
H  -1.09598740  1.97211660  0.15073751
H   1.58906900  1.75986540  0.24981661

