%chk=ts_freq.chk
%nprocshared=4
#P wB97X/6-31G(d) opt(ts,calcfc,noeigentest,nomicro,maxcycles=150) freq

ReactOT exact pure Gaussian calcfc TS opt+freq: rxn5995

0 1
C  -1.46148000 -0.59723580  0.03997294
C  -1.90455070  0.85889554 -0.06849351
C   0.21297047  0.91183245  0.55452543
N   1.47402430  1.27114020  0.49520930
C   2.06581430  0.14867270 -0.00009444
C   1.17427790 -0.87141365 -0.23382741
N  -0.04191886 -0.34333000  0.15809268
H  -1.63967380 -1.22483800 -0.83478450
H  -1.84311760 -1.10835230  0.93228394
H  -1.69406030  1.19274500 -1.08545710
H  -0.79617554  1.49324890  0.85016510
H   3.14449300  0.13723250 -0.17919250
H   1.30939670 -1.86859750 -0.62839997

