%chk=ts_freq.chk
%nprocshared=4
#P wB97X/6-31G(d) opt(ts,calcall,noeigentest,nomicro,maxcycles=150) freq

ReactOT exact pure Gaussian calcall TS opt+freq: rxn6007

0 1
O   1.35277440 -0.31860295  1.02902350
C   1.05621270 -0.12555593 -0.17126043
C   0.54439520  1.21370180 -0.44861412
N  -0.65173286  1.26121310  0.03882679
N  -1.16012060  0.06639882  0.53947335
C  -0.87182564 -1.01340690 -0.27597144
N   0.30994907 -1.13376130 -0.76450670
H   0.05221463 -0.26124160  1.31739780
H   1.00284610  2.09873630 -0.88668720
H  -1.63471290 -1.78748130 -0.37768158

