%chk=ts_freq.chk
%nprocshared=4
#P wB97X/6-31G(d) opt(ts,calcall,noeigentest,nomicro,maxcycles=150) freq

ReactOT exact pure Gaussian calcall TS opt+freq: rxn4787

0 1
O   1.99344030  0.05687015  1.30817870
C   1.45463660  0.34130496  0.26836467
O   1.10698040 -0.89112920 -0.88084775
C   0.01443231 -0.93783045 -0.16777190
C  -1.26509990 -0.36781085 -0.51621795
C  -0.44299713  0.68482710  0.27902055
H   1.78129070  1.07580610 -0.46581075
H  -0.00629589 -1.50716700  0.77952033
H  -1.42267250 -0.11482774 -1.56189990
H  -2.13836880 -0.76667120 -0.00744310
H  -0.33171445  1.56853810 -0.33815673
H  -0.74363166  0.85808986  1.30306390

