%chk=ts_freq.chk
%nprocshared=4
#P wB97X/6-31G(d) opt(ts,calcfc,noeigentest,nomicro,maxcycles=150) freq

ReactOT exact pure Gaussian calcfc TS opt+freq: rxn64

0 1
N   1.81697820 -0.29604116 -0.24364756
C   0.48627100 -0.10623389  0.10648515
C  -0.33468370  0.95535250 -0.36170092
N  -1.60273600  0.64416270 -0.33323710
C  -0.98161570 -1.12836050  0.43389730
N  -0.07976576 -0.95865864  1.20899920
H   2.21675180 -1.13193080  0.16074863
H   2.39139460  0.50725390  0.02396386
H   0.08079040  1.89741150 -0.71634290
H  -2.24997260  1.42760840 -0.37152445
H  -1.74341230 -1.81056380  0.09235893

