%chk=ts_freq.chk
%nprocshared=4
#P Opt=(TS,CalcAll,NoEigenTest,NoMicro,MaxCycles=150) Freq External='../../../../../production/external/horm.sh'

External--CalcAll initial TS guess: rxn7728

0 1
N   3.34903600  0.51262000  0.52824900
C   2.43020000 -0.31793300  0.34160900
N  -0.16644000  1.40015100 -0.93193800
N  -0.34416100  0.61461900 -0.15952300
O  -1.14228200 -1.50084800  1.22790600
C  -1.24226600 -0.86622600  0.27015500
C   1.38997300 -1.04582000  0.23216800
H   3.71921600  0.90495300 -0.33657000
H  -1.99289000 -0.66755100 -0.49351600
H   1.27521700 -2.11493100  0.13608800

