%chk=ts_freq.chk
%nprocshared=4
#P Opt=(TS,CalcAll,NoEigenTest,NoMicro,MaxCycles=150) Freq External='../../../../../production/external/horm.sh'

External--CalcAll initial TS guess: rxn6198

0 1
O  -2.18408000  0.92596500 -0.19181900
C  -1.87875800  0.05898700 -0.20207000
C  -0.92698300  0.37571200 -0.61058000
C  -0.39353800  2.59907600 -0.30398700
C   0.93574400  2.38484900 -0.74135100
C   0.40853600 -0.25677500 -0.29975700
N   1.43129800 -0.67855300  0.15478600
H  -1.79722700  0.26935700  0.45489700
H  -2.22708000 -0.39128800  0.84059000
H  -2.79761400 -0.12917300 -0.58289100
H  -1.35742200  0.20590800 -1.67077500
H   0.51400800  3.49181800 -0.57128000

