%chk=ts_freq.chk
%nprocshared=4
#P wB97X/6-31G(d) opt(ts,calcfc,noeigentest,nomicro,maxcycles=150) freq

ReactOT exact pure Gaussian calcfc TS opt+freq: rxn4467

0 1
C  -1.05974640 -0.15224122 -0.69368060
C   0.36325958 -0.33997014 -0.37315613
C   0.49725790  1.25659930 -0.34988275
O   1.09900220  1.86816010 -1.18787610
C   0.69097644 -0.85530110  0.92197806
O  -0.27592838 -1.05467210  1.75566380
H  -1.35310290 -0.37296670 -1.71368780
H  -1.11052100 -0.87032050  1.14729680
H  -1.68206750  0.58134800 -0.20680661
H   1.02309780 -0.66153200 -1.17674830
H   0.11407939  1.67545130  0.59894110
H   1.69369280 -1.07455500  1.27795860

