%chk=ts_freq.chk
%mem=6GB
%nprocshared=4
#P Opt=(TS,CalcAll,NoEigenTest,NoMicro,MaxCycles=150) Freq External='../../../../../production/external/horm.sh'

External--CalcAll initial TS guess: rxn9627

0 1
C  -2.36487440 -0.51782890 -0.30328795
C  -1.22855440  0.44703300 -0.54685170
C   0.04336916 -0.21774413  0.31610566
O   0.42245200 -1.34524200 -0.25877607
C   0.83555280  0.92323220  0.03521118
C   2.73170450 -0.26557523  0.57568100
O   2.95716740 -0.35161188  1.76726380
H  -3.23475620 -0.24576099 -0.92652920
H  -2.07854600 -1.54182570 -0.52892035
H  -2.71786740 -0.48056492  0.75149804
H  -0.94947183  0.42802775 -1.61030690
H  -1.51819700  1.46798060 -0.29886565
H  -0.36384034 -0.26277500  1.35454050
H   1.90308620 -0.97547500  0.11562008
H   0.75113880  1.84562530  0.61328280
H   1.26432560  1.01062150 -0.96117970
H   3.54731130  0.08188330 -0.09448548

