%chk=ts_freq.chk
%nprocshared=4
#P wB97X/6-31G(d) opt(ts,calcall,noeigentest,nomicro,maxcycles=150) freq

GSM eqV2 pure Gaussian calcall TS opt+freq: rxn1238

0 1
N   1.86387100 -0.78322900  0.50556800
C   0.67050200 -0.75706800  0.44644500
C  -0.74172900 -1.19890800  0.43635200
C  -1.30949100 -0.65858600 -0.88665200
C  -0.86594600  0.81259200 -0.95970200
O   0.42107300  0.90492600 -0.42722500
H   1.50724100  0.23392400 -0.23419800
H  -0.75728200 -2.29223300  0.48200000
H  -1.26281600 -0.79830200  1.31227000
H  -2.39717800 -0.77099500 -0.92832500
H  -0.86659600 -1.23220800 -1.70887100
H  -1.54192400  1.41458200 -0.33179800
H  -0.93531800  1.20521500 -1.98431800

