%chk=ts_freq.chk
%nprocshared=4
#P wB97X/6-31G(d) opt(ts,calcall,noeigentest,nomicro,maxcycles=150) freq

GSM eqV2 pure Gaussian calcall TS opt+freq: rxn3092

0 1
C  -0.98067100 -0.93157000 -0.03809100
C   0.30825200 -0.34324500 -0.53170700
C   0.92271100  0.81366000  0.24062600
O   2.35558900  0.56910700  0.11361900
C   2.51920300 -0.65169100 -0.42467900
N   1.41202300 -1.26276300 -0.69929900
H  -1.22500400 -1.86449300 -0.55788300
H  -1.80907700 -0.23269000 -0.20393400
H  -0.95300600 -1.14953700  1.04677900
H   0.86525600 -1.20927400 -1.66091600
H   0.67004300  0.81135200  1.32106700
H   0.70953700  1.81404300 -0.15257200
H   3.52203900 -0.96281700 -0.67851300

