%chk=ts_freq.chk
%nprocshared=4
#P Opt=(TS,CalcAll,NoEigenTest,NoMicro,MaxCycles=150) Freq External='../../../../../production/external/horm.sh'

External--CalcAll initial TS guess: rxn6590

0 1
N   2.00582800 -0.14009300 -1.27624000
C   0.69481400 -0.52005400 -1.06532900
O  -0.13010900  0.37455500 -0.68386100
N   0.23061400 -1.72644200 -1.25255900
C  -1.78015600 -0.86435000 -0.87906300
C  -2.16238200 -0.59096700  0.53805400
O  -2.15714300  0.75361000  0.90156000
H   2.24291900  0.76404100 -0.89650000
H   2.71233600 -0.84540700 -1.13582100
H   0.81798400 -2.31902500 -1.83573900
H  -1.95749000 -1.88803200 -1.17782400
H  -2.05864300 -0.13057800 -1.62683300
H  -1.54183900 -1.22227000  1.19329500
H  -3.19772900 -0.95483900  0.63931100
H  -1.28114700  1.07561800  0.62981700

