%chk=ts_freq.chk
%nprocshared=4
#P wB97X/6-31G(d) opt(ts,calcall,noeigentest,nomicro,maxcycles=150) freq

ReactOT exact pure Gaussian calcall TS opt+freq: rxn3802

0 1
C   1.69136370 -0.77342504 -0.70358515
O   0.94328860 -0.56765765  0.38429737
C  -0.19808163  0.06172635  0.35283527
C  -1.07557630 -0.09925712 -0.86058710
C  -0.80502987  0.31569517  1.69362430
H   1.48913800  1.08300010 -0.88252413
H   1.20855120 -1.00941090 -1.63678060
H   2.65324120 -1.20897870 -0.47583157
H   0.88897820  1.44811770 -0.49060383
H  -1.30124280 -1.15937210 -1.00741430
H  -0.58551973  0.28260928 -1.76349660
H  -2.01359900  0.45210573 -0.71916586
H  -1.39822800  1.23677210  1.66813890
H  -0.02221736  0.43607340  2.44468780
H  -1.47506630 -0.49799842  1.99640540

