%chk=ts_freq.chk
%nprocshared=4
#P wB97X/6-31G(d) opt(ts,calcall,noeigentest,nomicro,maxcycles=150) freq

ReactOT exact pure Gaussian calcall TS opt+freq: rxn4567

0 1
C   1.57097600  0.41746655 -0.56021100
N   0.24843086  0.49940140 -0.51981590
C  -0.61990340  1.16194670  0.44292647
C  -0.65615310 -0.28610328  0.12444634
C  -1.57441330 -1.30894670 -0.33199370
O  -2.54972100 -1.67496370  0.26504560
H   2.13905430  1.34852540 -0.49089798
H   2.00374460 -0.41949072 -1.11061920
H   1.47492330 -0.47371680  0.94604320
H  -0.15295571  1.44416620  1.40031640
H  -1.30640450  1.89562630  0.02757715
H   0.66242470 -0.80467760  1.08614030
H  -1.24000290 -1.79923370 -1.27895750

