%chk=ts_freq.chk
%nprocshared=4
#P Opt=(TS,CalcAll,NoEigenTest,NoMicro,MaxCycles=150) Freq External='../../../../../production/external/horm.sh'

External--CalcAll initial TS guess: rxn7014

0 1
C  -2.06363000 -0.05250140 -0.13766077
C  -0.79442763 -0.59373750  0.49946794
C   0.46265593 -0.08575355 -0.14739163
C   2.52305820 -0.12288481  0.22782005
O   1.53157210 -0.92906415 -0.10838212
C   0.60828185  1.13161470 -0.81677747
N   0.59649240  2.15972880 -1.41270410
H  -2.09749410  1.03926890 -0.11382728
H  -2.94646300 -0.43009752  0.37944660
H  -2.12584830 -0.36087576 -1.18985530
H  -0.78474880 -0.34075844  1.57089590
H  -0.77196777 -1.68278730  0.45775065
H   3.46057490 -0.24355708 -0.29837720
H   2.40194460  0.51140517  1.08959470

