%chk=ts_freq.chk
%nprocshared=4
#P Opt=(TS,CalcAll,NoEigenTest,NoMicro,MaxCycles=150) Freq External='../../../../../production/external/horm.sh'

External--CalcAll initial TS guess: rxn4384

0 1
O   1.96109400 -0.54199700  1.23117900
C   1.39749200  0.63836800  1.70381900
C   0.88136200  1.65511000  0.69452300
C   0.69382500  1.05543400 -0.70134200
C  -0.44921600  0.22002800 -0.07955900
C  -0.44416000  1.10404000  1.20381300
H   2.69445900 -0.30847300  0.64662700
H   1.98838900  1.13598800  2.47791400
H   1.19593900  2.68371600  0.86934500
H   1.53139800  0.51709900 -1.16387100
H   0.32427500  1.80015900 -1.40850800
H  -1.42320700  0.26177300 -0.58124700
H  -0.19165800 -0.82603400  0.09655100
H   0.40272400  0.33726300  2.26367800

