%chk=ts_freq.chk
%nprocshared=4
#P wB97X/6-31G(d) opt(ts,calcfc,noeigentest,nomicro,maxcycles=150) freq

ReactOT exact pure Gaussian calcfc TS opt+freq: rxn7364

0 1
O   0.86007410  0.63350827 -0.62237924
C   2.16484070 -0.38848390  0.03659560
C   1.22375080 -1.09970640  0.81849060
C   0.19793007 -0.35307124  0.44319043
C  -1.26874320 -0.18744928  0.61881804
C  -1.96196390  0.19335341 -0.66007350
O  -2.64567110  1.17055550 -0.81830955
H   0.90796600  1.55327760 -0.28577733
H   2.81643580  0.36224696  0.50375724
H   2.55252530 -0.78578174 -0.89456695
H  -1.50104330  0.54888110  1.39967480
H  -1.61202620 -1.16158900  0.96673570
H  -1.73407540 -0.48574123 -1.50615570

