%chk=ts_freq.chk
%nprocshared=4
#P Opt=(TS,CalcAll,NoEigenTest,NoMicro,MaxCycles=150) Freq External='../../../../../production/external/horm.sh'

External--CalcAll initial TS guess: rxn3835

0 1
N   3.35723110 -0.18521643  0.51230985
C   2.27796390 -0.51796360  0.24996631
C   0.88847570 -0.85301010 -0.11178170
C  -0.08735894  0.20890431  0.27155855
C  -2.03049760  0.83406657 -0.15046340
O  -1.33829050 -0.17926636  0.39164206
H   0.59866273 -1.76909180  0.40661195
H   0.87295955 -1.08952010 -1.17831310
H   0.16438766  1.24875160  0.37266004
H  -2.93036500  1.13444600  0.37141234
H  -1.77316860  1.16789980 -1.13560300

