%chk=ts_freq.chk
%nprocshared=4
#P wB97X/6-31G(d) opt(ts,calcfc,noeigentest,nomicro,maxcycles=150) freq

ReactOT exact pure Gaussian calcfc TS opt+freq: rxn5426

0 1
N   1.65968910 -1.82843640  0.30909285
C   0.90569204 -0.84445470  0.12007204
O   1.34569790  0.35433400 -0.52854246
C   0.34908164  1.25017010 -0.39826530
C  -0.92845285  0.64247970 -0.16873138
C  -1.39935300 -0.75204200 -0.60059900
C  -0.49213140 -0.57867146  0.61896090
H   2.61620280 -1.63012620 -0.02212925
H   0.59909165  2.25642870 -0.68962044
H   0.45875964  1.36925480  1.42871310
H  -1.69254820  1.28059830  0.25771728
H  -1.01643010 -1.20685970 -1.51498650
H  -2.47207070 -0.85886365 -0.46003592
H   0.06677177  0.54618853  1.64835400

