%chk=ts_freq.chk
%mem=6GB
%nprocshared=4
#P Opt=(TS,CalcAll,NoEigenTest,NoMicro,MaxCycles=150) Freq External='../../../../../production/external/horm.sh'

External--CalcAll initial TS guess: rxn7524

0 1
O   2.21665480 -0.23152564  0.13472304
C   1.16893400  0.11689945 -0.74688340
C  -0.18381032 -0.12420156 -0.08443692
C  -0.49155772 -1.37548170  0.39882076
N  -0.25221547  0.68861157  1.14040150
C  -1.33976700  0.85726404 -0.78820410
O  -2.38029800  0.77265700 -1.30922650
H   2.07916430  0.29511228  0.93873590
H   1.23076930  1.16536260 -1.04664710
H   1.26552830 -0.52744200 -1.62924840
H   0.18754888 -2.21002670  0.25679684
H  -1.45259560 -1.54651200  0.90450190
H  -1.13054940  0.48388675  1.63833000
H  -0.91780597  1.63539610  0.19233648

