%chk=ts_freq.chk
%mem=6GB
%nprocshared=4
#P Opt=(TS,CalcAll,NoEigenTest,NoMicro,MaxCycles=150) Freq External='../../../../../production/external/horm.sh'

External--CalcAll initial TS guess: rxn8442

0 1
C  -1.86274000 -0.18705640 -0.27487096
C  -0.38849905 -0.11881453 -0.00285216
O   0.36594948 -1.28736200 -0.36591104
C   1.52737210 -0.80224970  0.12710173
O   1.61315760 -1.09764360  1.38014110
C   1.77635490  0.52836710 -0.32366744
C   0.47128686  0.99582005 -0.30617625
H  -2.29326300 -1.07986010  0.18849316
H  -2.35591400  0.68613434  0.15864187
H  -2.07866170 -0.21503700 -1.35066000
H   0.40264574 -0.52762160  1.42775100
H   2.69399800  1.08382550 -0.26076250
H   0.12831303  2.02149800 -0.39722842

