%chk=ts_freq.chk
%nprocshared=4
#P wB97X/6-31G(d) opt(ts,calcall,noeigentest,nomicro,maxcycles=150) freq

GSM eqV2 pure Gaussian calcall TS opt+freq: rxn1041

0 1
C  -1.48404100 -0.49754000  0.46343800
O  -0.29132900 -1.29052400  0.23435800
C   0.83013900 -0.62212200  0.51849900
C   0.47783800  0.83368900  0.62102000
N  -0.13958800  1.35315300 -0.59593800
C  -1.00020900  0.92927800  0.49300000
H  -1.91714300 -0.79455900  1.42665100
H  -2.18124900 -0.73297300 -0.34556900
H   1.03210500 -0.82771600  2.27135300
H   1.47843000 -1.06938500  1.49698200
H   1.10508700  1.51243000  1.19024400
H  -0.10832400  0.66943200 -1.35162400
H  -1.60144600  1.69448600  0.97480500

