%chk=ts_freq.chk
%nprocshared=4
#P wB97X/6-31G(d) opt(ts,calcfc,noeigentest,nomicro,maxcycles=150) freq

ReactOT exact pure Gaussian calcfc TS opt+freq: rxn3086

0 1
C  -1.50802920 -0.45285430  0.25896984
C  -0.04165881 -0.17137107 -0.63812910
C  -0.21500313  1.00350490  0.10870501
O   2.14514780  0.93697613  0.16203120
C   2.07364080 -0.29065560  0.00140405
N   0.97501177 -1.04479860 -0.34346855
H  -1.76893010 -1.33405910 -0.32883504
H  -2.34589220  0.23911878  0.22840475
H  -1.28818610 -0.77033170  1.27540340
H  -0.38436958 -0.13678472 -1.67609640
H   0.09287616  1.05389830  1.14513000
H  -0.71821940  1.87402130 -0.30953792
H   2.98361160 -0.90666430  0.11601883

