%chk=ts_freq.chk
%nprocshared=4
#P wB97X/6-31G(d) opt(ts,calcall,noeigentest,nomicro,maxcycles=150) freq

ReactOT exact pure Gaussian calcall TS opt+freq: rxn9864

0 1
C  -2.06457570 -0.27593780  0.10123386
C  -1.10028330  0.79178650 -0.32416558
C  -0.09252276  1.37553140  0.62107277
C   0.37636596  0.54632837 -0.55450535
C   0.99587715 -0.80300120 -0.36073425
C   2.52407800 -0.68037480  0.49991387
O   2.63923840 -0.78295850 -0.79457240
H  -2.96406340  0.15564825  0.55383110
H  -1.62745650 -0.94432455  0.85965000
H  -2.38598820 -0.90755150 -0.73628485
H  -1.54134400  1.48719930 -1.04296890
H   0.10759940  2.43964980  0.61013436
H  -0.01859476  0.90819436  1.60070750
H   0.83262616  1.10138230 -1.37127140
H   0.85629225 -1.46988990 -1.21045640
H   0.63365100 -1.34172960  0.51492560
H   2.82910060 -1.59995210  1.03349010

