%chk=ts_freq.chk
%nprocshared=4
#P Opt=(TS,CalcAll,NoEigenTest,NoMicro,MaxCycles=150) Freq External='../../../../../production/external/horm.sh'

External--CalcAll initial TS guess: rxn4698

0 1
C   1.44638810  0.61034596 -0.00886199
C   0.45459816 -0.51691836 -0.24589685
C  -0.56506980 -0.85649830  0.80381510
C  -1.00807270 -0.22068349 -0.49637577
C  -1.31388400  1.37202130 -0.91887480
N  -1.93464060  1.23062230  0.08818643
H   1.75482230  1.07033930 -0.95313334
H   2.33850310  0.22823296  0.50385300
H   1.00500100  1.39860950  0.61833390
H   0.82556045 -1.33206120 -0.84599924
H  -0.59851600 -0.23726593  1.69369010
H  -0.85312440 -1.89413810  0.95091647
H  -1.55156580 -0.85260606 -1.18965300

