%chk=ts_freq.chk
%nprocshared=4
#P Opt=(TS,CalcAll,NoEigenTest,NoMicro,MaxCycles=150) Freq External='../../../../../production/external/horm.sh'

External--CalcAll initial TS guess: rxn793

0 1
C   2.15313050 -0.00140277  0.03409508
O   1.21866320 -0.35590482  1.06983410
C   0.30359995  0.09229501  0.11856081
C  -0.85978790  0.99599760  0.52383610
O  -1.76857330  0.13685282 -0.18730685
C  -0.75846934 -0.82317780 -0.49577728
H   2.18264440 -0.92355514 -0.59841220
H   0.99511720  0.64667420 -0.66504556
H  -0.86474633  2.02145840  0.13169266
H  -1.02430260  1.00577220  1.60236400
H  -0.88412267 -1.77080400  0.03803732
H  -0.69315314 -1.02420570 -1.57187810

