%chk=ts_freq.chk
%nprocshared=4
#P wB97X/6-31G(d) opt(ts,calcfc,noeigentest,nomicro,maxcycles=150) freq

ReactOT exact pure Gaussian calcfc TS opt+freq: rxn2289

0 1
O   1.46525320 -0.99604523 -1.15227900
C   1.53154230  0.00857940 -0.42352483
C  -0.18607216  0.56624544  0.44549810
O   0.14880430  1.72674110  1.09002440
C  -0.93354416 -0.65961550  0.79417960
C  -1.19923380  0.24384764 -0.35655686
H  -0.01771234 -0.98896380 -1.78089710
H   1.71193490  0.99461710 -0.86697410
H   1.94600300 -0.10087676  0.58412105
H   0.43578073  1.48628880  1.97931850
H  -1.66000780 -0.68611930  1.61354050
H  -0.43213356 -1.61274950  0.59332174
H  -0.75481915 -0.68091580 -1.66665330
H  -2.05579520  0.69896640 -0.85311870

