%chk=ts_freq.chk
%nprocshared=4
#P wB97X/6-31G(d) opt(ts,calcall,noeigentest,nomicro,maxcycles=150) freq

ReactOT exact pure Gaussian calcall TS opt+freq: rxn7428

0 1
C   0.58186555  1.05348090  1.23029600
O   0.66709560 -0.82775867  1.27885750
C   0.16737391 -1.16126450 -0.00684570
C  -1.11295490 -0.56899130 -0.57327810
O  -1.45440420  0.60683220  0.11358523
C  -0.11292476  1.11952250 -0.09519830
C   0.25140616 -0.07744213 -1.02268350
H   1.66746850  1.28151370  1.09499400
H   0.13048895 -0.14802967  1.87982670
H   0.42945940 -2.17357200 -0.28664234
H  -1.87783480 -1.13749500 -1.08972420
H  -0.11875382  2.12367320 -0.55179540
H   0.78171426 -0.09046911 -1.97139140

