%chk=ts_freq.chk
%nprocshared=4
#P wB97X/6-31G(d) opt(ts,calcfc,noeigentest,nomicro,maxcycles=150) freq

ReactOT exact pure Gaussian calcfc TS opt+freq: rxn6772

0 1
N  -1.40744150 -0.09029594 -0.70425856
C  -0.88685050  0.00152339  0.55258190
C  -0.07670885  1.20331300  0.69768816
N   1.04796800  1.13540850  0.06548780
C   1.28684750 -0.12269042 -0.50828720
N   0.95258740 -1.31391290  0.10852825
C  -0.18582655 -1.26541460  0.72888980
H  -1.79565250  0.79268354 -1.02698490
H  -0.19585119 -0.15189734 -1.23100010
H  -0.36292070  2.13696340  1.19516930
H   2.19715950 -0.17001362 -1.10729970
H  -0.57331080 -2.15566700  1.22948500

