%chk=ts_freq.chk
%mem=6GB
%nprocshared=4
#P Opt=(TS,CalcAll,NoEigenTest,NoMicro,MaxCycles=150) Freq External='../../../../../production/external/horm.sh'

External--CalcAll initial TS guess: rxn8315

0 1
C   2.27878900 -0.45200008  0.07185383
C   0.82689960 -0.11438952 -0.00419865
C  -0.17173706 -0.84725390 -0.63371074
C  -1.37299200 -0.18360585 -0.29282543
N  -2.66719220 -0.39253286 -0.04313155
C  -1.08402160  1.07314090  0.35112277
N   0.32437650  0.98181980  0.62770540
H   2.59123350 -0.59534280  1.11546100
H   2.48413350 -1.38092820 -0.46533860
H   2.89628050  0.34751780 -0.35157394
H  -0.03353297 -1.81843660 -1.08642030
H  -2.46213360  0.71457520  0.69969690
H  -3.20398260 -1.01012430 -0.65725833
H  -1.31068410  1.93750270 -0.28539312
H   0.90456384  1.74005770  0.95401070

