%chk=ts_freq.chk
%nprocshared=4
#P Opt=(TS,CalcAll,NoEigenTest,NoMicro,MaxCycles=150) Freq External='../../../../../production/external/horm.sh'

External--CalcAll initial TS guess: rxn662

0 1
C  -1.60102450  0.75627060 -0.11982925
C  -0.47843486  0.31410995 -0.82737420
C   1.12459870  0.87353380 -0.02262568
C   1.43798790 -0.34829533  0.62471700
C   0.44196690 -1.31186470  0.65849360
C  -0.54833025 -1.04152570 -0.26793516
H  -1.62854030  0.67259485  0.96920997
H  -2.45949500  1.25028510 -0.57985780
H  -0.47118610  0.45251113 -1.90970090
H   0.60174680  1.63758790  0.55153580
H   1.92182430  1.36969570 -0.56952626
H   2.44568540 -0.61473490  0.92900074
H   0.49700758 -2.25419470  1.19642100
H  -1.28380680 -1.75597350 -0.63252870

