%chk=ts_freq.chk
%nprocshared=4
#P Opt=(TS,CalcAll,NoEigenTest,NoMicro,MaxCycles=150) Freq External='../../../../../production/external/horm.sh'

External--CalcAll initial TS guess: rxn3528

0 1
C  -1.54095600 -0.26615515 -0.25750202
C  -0.24400547  0.13957538  0.13012354
O  -0.31200227  1.10091390  0.97587740
C   1.12067990 -0.30676463 -0.34282178
O   2.16317770  0.19338353  0.42766276
H  -2.11093690 -0.71981156  0.55005400
H  -1.73603820 -0.73681825 -1.22668850
H  -1.50976480  1.01110720  0.53054696
H   1.19649420  0.05987971 -1.38585660
H   1.16037860 -1.39513400 -0.37218740
H   1.81297300  0.91982390  0.97079164

