%chk=ts_freq.chk
%nprocshared=4
#P Opt=(TS,CalcAll,NoEigenTest,NoMicro,MaxCycles=150) Freq External='../../../../../production/external/horm.sh'

External--CalcAll initial TS guess: rxn3221

0 1
C  -1.51621660 -0.19703900 -0.23952486
C  -0.05354878 -0.28523612  0.89255980
C   1.14855180 -0.97481805  0.25091332
O   2.04899300 -0.19109125 -0.49946627
C  -0.34587467  1.17349640 -0.08905014
O   0.30108762  1.07009390  1.11943360
H  -1.35227980 -1.25413870 -0.46398288
H  -1.80423030  0.26200620 -1.19750490
H  -2.34194280 -0.08166836  0.45560706
H   0.82439700 -1.80877780 -0.36901316
H   1.66617580 -1.39902320  1.13659200
H   2.26336930  0.57579120  0.05820353
H  -1.13752290  1.92444520 -0.08493326
H   0.29904130  1.18595970 -0.96983397

