%chk=ts_freq.chk
%nprocshared=4
#P Opt=(TS,CalcAll,NoEigenTest,NoMicro,MaxCycles=150) Freq External='../../../../../production/external/horm.sh'

External--CalcAll initial TS guess: rxn6281

0 1
N   2.17812500  0.82213200  0.56328800
C   0.94854800  0.63464000  0.25147900
C   0.41648700 -0.80402600  0.24613000
C  -0.94069900 -0.91899300  0.96695100
C  -1.91968900  0.05637800  0.33049200
C  -1.84239500  1.36424300  0.83555900
O   0.09926100  1.57687000 -0.15186800
H   2.38148900  1.81848000  0.45781300
H   0.30970600 -1.11450200 -0.80098100
H   1.16884500 -1.45273800  0.70264500
H  -0.77361400 -0.64326500  2.01469000
H  -1.32627800 -1.94678900  0.97185300
H  -1.18160500  0.71454400 -0.42796300
H  -2.74806700 -0.25410100 -0.29758100
H  -1.28004200  1.65739600  1.71341800
H  -2.41420000  2.15466800  0.35147300

