%chk=ts_freq.chk
%nprocshared=4
#P Opt=(TS,CalcAll,NoEigenTest,NoMicro,MaxCycles=150) Freq External='../../../../../production/external/horm.sh'

External--CalcAll initial TS guess: rxn9044

0 1
N   2.83477700  1.20077800  0.14011000
C   2.23959300  0.09340600  0.59437500
C   0.81518300  0.06623200  0.71039300
C   0.40403300  1.24022700  0.11319500
C   0.81839600  2.40932600  0.00012800
H   3.85184500  1.10049200  0.17338600
H   2.81285700 -0.78643100  0.89853400
H   0.22222600 -0.82767000  0.85731500
H  -0.43128900  2.11994100  0.90374800
H   0.87772900  3.41870500 -0.36358300

