%chk=ts_freq.chk
%nprocshared=4
#P Opt=(TS,CalcAll,NoEigenTest,NoMicro,MaxCycles=150) Freq External='../../../../../production/external/horm.sh'

External--CalcAll initial TS guess: rxn4103

0 1
C  -1.87537200  0.78221300 -0.28166000
N   0.22067700  0.69019900 -0.37298600
C   0.11401000 -0.59932700 -0.40747900
O  -1.03215300 -1.11206000 -0.28969700
C   1.30190000 -1.51327000 -0.63431300
O   2.38642200 -1.09085500 -0.95176700
H  -2.69339100  0.12406800 -0.54249300
H  -1.82325800  1.03814100  0.76964300
H  -1.74488100  1.62649700 -0.94623100
H   1.08340300  1.04300900 -0.78849000
H   1.09328700 -2.58976100 -0.49834700

