%chk=ts_freq.chk
%nprocshared=4
#P wB97X/6-31G(d) opt(ts,calcfc,noeigentest,nomicro,maxcycles=150) freq

ReactOT exact pure Gaussian calcfc TS opt+freq: rxn4860

0 1
C   2.47584920  0.06393319  0.11337898
N   1.18255530 -0.23931098  0.59625065
C   0.25830870  0.54814540 -0.13001518
C  -0.94061816 -0.25085583  0.06415086
C  -2.31940700  0.02608172 -0.45231090
N  -0.67976755 -1.22158560  0.92140040
N   0.64781270 -1.21992140  1.24236760
H   2.63778020 -0.44680157 -0.83553530
H   3.28198800  0.04530391  0.82213384
H   1.31267980  0.85835650 -0.84425790
H   0.18267593  1.57651790  0.22977085
H  -3.00140210 -0.72524960 -0.03204729
H  -2.67228200  1.01847930 -0.15336123
H  -2.36617260 -0.03309296 -1.54192540

