%chk=ts_freq.chk
%nprocshared=4
#P wB97X/6-31G(d) opt(ts,calcfc,noeigentest,nomicro,maxcycles=150) freq

GSM eqV2 pure Gaussian calcfc TS opt+freq: rxn8802

0 1
C   2.12528600 -1.00866400 -0.86645100
C   1.33758100 -1.15514700  0.07316200
C   0.17790700 -0.92861200  1.42559400
C  -0.24046000 -1.60845100  0.22792200
C  -1.18647400 -0.67352700 -0.43512900
N  -1.20775500  0.46870100  0.17949200
N  -0.35345500  0.31129700  1.24165200
H   2.95897600 -0.86608500 -1.53183400
H  -0.22065100 -2.68770000  0.09074700
H  -1.79707200 -0.85644800 -1.30211600
H  -0.09308400  1.14214700  1.74339300

