%chk=ts_freq.chk
%nprocshared=4
#P wB97X/6-31G(d) opt(ts,calcfc,noeigentest,nomicro,maxcycles=150) freq

GSM eqV2 pure Gaussian calcfc TS opt+freq: rxn618

0 1
C  -1.77767400  0.05532600  1.22539400
C  -0.85157000 -1.14745500  1.40590000
C   0.60334900 -0.87605800  1.02965300
C   0.86516700 -0.64162200 -0.43613500
C   2.10823900  0.14491000 -0.66666200
C   1.03896800  1.22152900 -0.61394000
H  -1.84539500  0.35858400  0.17335700
H  -1.42094500  0.92429900  1.79677200
H  -2.79268100 -0.16535700  1.57293300
H  -0.89113200 -1.47602900  2.45445300
H  -1.22832000 -1.97925500  0.79938900
H   1.19155400 -1.79498000  1.20202600
H   1.06153200 -0.12586100  1.70248800
H   0.08164400  0.53677300 -0.84171200
H   2.85486700  0.22515900  0.12680900
H   2.56992100  0.02255400 -1.64915200
H   1.03486700  1.87906600 -1.48440200
H   0.91358100  1.74233900  0.33192800

