%chk=ts_freq.chk
%nprocshared=4
#P Opt=(TS,CalcAll,NoEigenTest,NoMicro,MaxCycles=150) Freq External='../../../../../production/external/horm.sh'

External--CalcAll initial TS guess: rxn2349

0 1
C   0.88661000 -0.36426300  0.52361500
C  -0.40854900 -0.12216300  0.26219200
C  -1.07308200 -1.39520800  0.14895400
N  -0.33880900 -2.44478400 -0.14841400
C   0.86711600 -2.76237500 -0.16418200
C   2.00040300 -1.03490000  0.49402900
H   1.93292700 -0.08258100  1.34251800
H  -0.88940800  0.84187500  0.25102600
H  -2.15211700 -1.53861400  0.18080000
H   1.23068500 -3.52300800 -0.86536200
H   3.03041300 -0.93872200  0.18474100

