%chk=ts_freq.chk
%nprocshared=4
#P Opt=(TS,CalcAll,NoEigenTest,NoMicro,MaxCycles=150) Freq External='../../../../../production/external/horm.sh'

External--CalcAll initial TS guess: rxn4111

0 1
O   2.66681000  0.66206900 -0.27579500
C   1.51796300  0.33522600 -0.32527100
N   0.86368000 -0.70941200  0.25096100
C  -0.50415100 -0.80560000 -0.20627400
C  -0.66498600  0.49372500 -0.98797300
O   0.56017800  1.04712600 -1.07411400
H   1.40195900 -1.45295500  0.66453800
H  -0.67784400 -1.66206800 -0.87233000
H  -1.20228400 -0.87526500  0.63131700
H  -1.29724700  1.35904100  0.36568300
H  -1.53874200  1.31158900 -0.48643400

