%chk=ts_freq.chk
%nprocshared=4
#P wB97X/6-31G(d) opt(ts,calcfc,noeigentest,nomicro,maxcycles=150) freq

GSM eqV2 pure Gaussian calcfc TS opt+freq: rxn1379

0 1
N  -1.67305500 -1.02990100 -0.02770100
C  -0.48723600 -0.21940300  0.21328400
C   0.54371800 -1.10818500  0.12614200
N   1.64389300 -0.33803700  0.23258200
N   1.36830100  0.98759300  0.40854900
C   0.03970700  1.07259400  0.40410600
H  -2.24707800 -0.77660400 -0.83122200
H  -2.27715700 -1.18793000  0.78044800
H  -0.80838500 -1.91924200 -0.21098500
H   2.61160100 -0.59913200  0.13609100
H  -0.43575700  2.03698400  0.53397900

