%chk=ts_freq.chk
%nprocshared=4
#P Opt=(TS,CalcAll,NoEigenTest,NoMicro,MaxCycles=150) Freq External='../../../../../production/external/horm.sh'

External--CalcAll initial TS guess: rxn602

0 1
C  -2.59044600  0.63861700  0.84535400
C  -0.87828200  0.04463900 -0.07934200
O  -1.49752500  1.48113300 -0.19432300
C   0.28241700  0.14349500  0.84151500
C   1.47840700 -0.72748900  0.58480000
C   1.60687500  0.75583700  0.40554900
H  -3.05749900  1.58620100  1.16999500
H  -2.28277800  0.06381000  1.71782400
H  -3.26978400  0.07351500  0.21852800
H  -0.52942300 -0.15594400 -1.10330400
H  -0.91776400  2.13459900  0.24580600
H   0.04359800  0.29403800  1.89847500
H   1.96845500 -1.18923900  1.43670400
H   1.45786900 -1.34728600 -0.30826100
H   1.67896000  1.13889000 -0.61029900
H   2.19041000  1.30829700  1.13824300

