%chk=ts_freq.chk
%nprocshared=4
#P wB97X/6-31G(d) opt(ts,calcall,noeigentest,nomicro,maxcycles=150) freq

ReactOT exact pure Gaussian calcall TS opt+freq: rxn4941

0 1
C  -1.17283580  1.47074770 -0.29718322
C  -0.26566502  0.35212480  0.21814407
C  -0.89056500 -1.02364210  0.04246937
O  -0.48787624 -1.97405820  1.02345530
N   0.97342306  0.45730418 -0.59819937
C   2.06120920 -0.17039922 -0.23672195
O   2.08488630 -0.86067480  0.89028203
H  -0.71518534  2.45084930 -0.17500727
H  -2.10264900  1.46253170  0.27339393
H  -1.46218810  1.35307880 -1.37158540
H   1.21949820 -0.62043965  1.32316880
H  -1.99458740 -0.92387414  0.09666880
H  -0.66710050 -1.51495220 -0.91447780
H  -0.63518125 -1.51950240  1.86389330
H   1.04797360  1.09257820 -1.38948330
H   3.00684360 -0.03167235 -0.74881730

