%chk=ts_freq.chk
%nprocshared=4
#P wB97X/6-31G(d) opt(ts,calcfc,noeigentest,nomicro,maxcycles=150) freq

GSM eqV2 pure Gaussian calcfc TS opt+freq: rxn5713

0 1
C   2.32322600 -0.63246100  1.35783900
O   1.27978800 -0.63278800  0.38059400
C   0.08520300 -0.23843200  0.77386500
C  -2.23381600  1.04376800  0.45532300
C  -2.61220600  1.02257600 -0.99227500
C  -2.31291700 -0.07810300  1.26832100
N  -2.11778400 -0.79970600  1.78476500
H   3.24891400 -0.85833800  0.82560400
H   2.12485600 -1.39723100  2.11188700
H   2.39571900  0.35144400  1.83871700
H  -0.02311200  0.29406300  1.70381900
H  -0.67124100 -0.55061700  0.09643100
H  -2.21119700  1.99839500  0.98306200
H  -3.67328500  1.26813700 -1.13631000
H  -2.03445800  1.75775700 -1.56083300
H  -2.43879100  0.03284400 -1.43217900

