%chk=ts_freq.chk
%nprocshared=4
#P Opt=(TS,CalcAll,NoEigenTest,NoMicro,MaxCycles=150) Freq External='../../../../../production/external/horm.sh'

External--CalcAll initial TS guess: rxn3485

0 1
C   0.85063800 -0.72448000 -0.73221400
O   0.38167000  0.66030200 -0.57075100
C  -0.44411900 -0.21600200 -1.12845500
C  -1.68974200 -0.84797900  0.59105900
C  -2.34833700 -1.31835600 -0.54079300
C  -1.35395300 -0.27366300 -2.20309400
H   0.97683100 -1.24222300  0.21412600
H   1.62402800 -0.86173400 -1.48609100
H  -2.06651700  0.05825400  1.07157400
H  -1.17631200 -1.52988600  1.26585500
H  -3.31568300 -0.95749800 -0.88177100
H  -2.12455300 -2.32256400 -0.89103200
H  -1.90679500  0.65825500 -2.35084300
H  -0.93055500 -0.65909900 -3.13442800

