%chk=ts_freq.chk
%nprocshared=4
#P wB97X/6-31G(d) opt(ts,calcfc,noeigentest,nomicro,maxcycles=150) freq

ReactOT exact pure Gaussian calcfc TS opt+freq: rxn2380

0 1
O   2.10369800 -0.27655414  0.00263717
C   0.89834696  0.16773054 -0.04554617
C   0.04212358  1.22854090 -0.20199794
O  -1.26270060  0.72155290 -0.09245981
C  -1.16318610 -0.57126963  0.11734386
N   0.07946525 -0.96162033  0.15617324
H   1.23627050 -1.43642720  0.20993347
H   0.12726580  2.29253200 -0.37865560
H  -2.06128330 -1.16448500  0.23257178

