%chk=ts_freq.chk
%nprocshared=4
#P wB97X/6-31G(d) opt(ts,calcall,noeigentest,nomicro,maxcycles=150) freq

ReactOT exact pure Gaussian calcall TS opt+freq: rxn5733

0 1
C   2.41206650  0.01050200 -0.35560584
C   1.09916960 -0.32440007  0.37271005
O   1.32968650 -0.68058930  1.71842220
C   0.26893273  0.93386980  0.28989363
C  -0.58325330  1.00723390 -0.92319930
C  -1.53637150  0.48513955  0.14963767
C  -2.11273200 -0.90388870 -0.03496005
H   2.25418700  0.14209004 -1.43866680
H   3.11403100 -0.81556990 -0.18180804
H   2.85006900  0.92902625  0.05742104
H   0.67367100 -1.20748730 -0.11687645
H   1.39803410  0.14730021  2.19804840
H  -0.86325720  0.54376350  1.11779140
H  -0.42290540  0.25970012 -1.71559300
H  -0.81180390  2.00704980 -1.32203590
H  -2.26246450  1.25822910  0.42041550
H  -1.33924150 -1.64566040 -0.26022243
H  -2.84018300 -0.90168740 -0.84947795
H  -2.62763670 -1.24462120  0.87410600

