%chk=ts_freq.chk
%nprocshared=4
#P wB97X/6-31G(d) opt(ts,calcfc,noeigentest,nomicro,maxcycles=150) freq

GSM eqV2 pure Gaussian calcfc TS opt+freq: rxn7599

0 1
C   2.97258300 -0.82390000 -0.44420300
C   1.80362300 -0.51593400  0.46770100
O   0.80304900  0.18748700 -0.28673500
C  -0.44555800 -0.26182700 -0.15866400
C  -1.28600400  1.07566800  1.26565800
C  -1.36811500 -0.02350800 -1.24845100
O  -2.54590400  0.28320500 -1.16288400
H   3.40443400  0.09719600 -0.84609000
H   3.74958100 -1.36149000  0.10910700
H   2.64733700 -1.45103500 -1.27989400
H   1.35155900 -1.42778400  0.87216500
H   2.10542800  0.13335900  1.29879000
H  -0.98441700 -0.13772100  0.98861500
H  -2.23320100  0.88607100  1.77271100
H  -0.47931900  1.38091800  1.93366300
H  -1.44143200  1.79103500  0.46490500
H  -0.90283200 -0.27402400 -2.22672700

