%chk=ts_freq.chk
%nprocshared=4
#P wB97X/6-31G(d) opt(ts,calcall,noeigentest,nomicro,maxcycles=150) freq

GSM eqV2 pure Gaussian calcall TS opt+freq: rxn1351

0 1
O   0.36676200 -1.11925900 -1.29825700
C   0.12170100  0.10848500 -0.63359800
C  -1.00878400  0.11268800 -0.02252700
C  -1.01437600  0.13954700  0.91126200
O   0.12640900 -0.70965700  1.62153500
C   1.11469500  0.12124400  0.75760900
H   0.39587900 -1.78555000 -0.54658400
H   0.25275500  0.89118300 -1.35172900
H  -1.52053800 -0.61744300 -0.44141300
H  -1.66738600  0.82200100  0.35651400
H  -1.70727800 -0.11605700  0.42962000
H  -1.00656100  0.44802500  1.21012600
H   1.23766200  1.19965100  1.13210800
H   2.10349400 -0.30184100  0.61461300

