%chk=ts_freq.chk
%nprocshared=4
#P Opt=(TS,CalcAll,NoEigenTest,NoMicro,MaxCycles=150) Freq External='../../../../../production/external/horm.sh'

External--CalcAll initial TS guess: rxn1366

0 1
N   3.13634000 -0.71091187 -0.08160954
C   1.96885990 -0.41687843  0.05494100
C   0.62950480 -0.09524118  0.15434492
C  -0.59351530 -0.94340390  0.38056270
C  -1.41882800  0.35070583  0.14265762
C  -0.13365820  1.15373480 -0.19693297
H   1.91037450 -0.71287817 -1.06318510
H  -0.75999177 -1.75108080 -0.33613950
H  -0.67261636 -1.37514560  1.38673060
H  -2.13851880  0.28117812 -0.68244094
H  -1.95125700  0.70893747  1.01949520
H   0.07064034  2.01446130  0.45262372
H  -0.04733406  1.49652220 -1.23104760

