%chk=ts_freq.chk
%nprocshared=4
#P wB97X/6-31G(d) opt(ts,calcfc,noeigentest,nomicro,maxcycles=150) freq

GSM eqV2 pure Gaussian calcfc TS opt+freq: rxn8219

0 1
C  -1.38076800 -1.56088000  0.09943300
C  -0.15249200 -1.00959000 -0.57451200
C   0.36449400  0.32616100 -0.42563100
N  -0.50498100  1.16086700 -0.97202200
C   1.73614200  0.22541600 -0.03091000
C   2.01719400 -1.10060400 -0.20603300
O   0.97502000 -1.86936500 -0.53031400
H  -2.06822700 -0.73423500  0.28717200
H  -1.89410500 -2.29144300 -0.52984100
H  -1.14251100 -2.04073300  1.06302100
H  -0.40258800  2.17043100 -0.95320500
H  -0.79952500 -0.04804900 -1.53666300
H   2.46027500  1.00917600  0.14146200
H   2.97444600 -1.60897100 -0.17683000

