%chk=ts_freq.chk
%nprocshared=4
#P wB97X/6-31G(d) opt(ts,calcall,noeigentest,nomicro,maxcycles=150) freq

ReactOT exact pure Gaussian calcall TS opt+freq: rxn1279

0 1
N  -1.29890120  0.82139390  0.76657397
C  -1.05848930 -0.38480324  0.21142791
O  -1.85552640 -1.26559280 -0.00475746
C   0.40454954 -0.57873140 -0.19828525
C   1.71854210  0.63131710 -0.75394450
O   1.30484600  0.21640466  0.53975490
H  -0.54163384  1.45379050  0.97185480
H  -2.24244120  1.02716800  1.07201710
H   0.68285525 -1.63333940 -0.23097101
H   2.44025090 -0.15509243 -1.09039780
H   0.44594797 -0.13251492 -1.28327260

