%chk=ts_freq.chk
%nprocshared=4
#P wB97X/6-31G(d) opt(ts,calcfc,noeigentest,nomicro,maxcycles=150) freq

GSM eqV2 pure Gaussian calcfc TS opt+freq: rxn102

0 1
N   1.06425400 -0.95647300 -1.29531100
C   0.07945100 -0.72494200 -0.66321400
C  -0.91439300 -0.81455600  0.46496300
O  -1.63237100  0.36837600  0.54801400
C  -0.80338300  1.45983100  0.10977600
O  -0.22674200  1.09722200 -1.08098400
H   0.77978700  0.30675100 -1.40110000
H  -1.59042500 -1.65829200  0.30289400
H  -0.31119200 -0.99849300  1.36910200
H  -1.49410000  2.29904400 -0.01144300
H  -0.06010900  1.69255600  0.89650200

