%chk=ts_freq.chk
%nprocshared=4
#P Opt=(TS,CalcAll,NoEigenTest,NoMicro,MaxCycles=150) Freq External='../../../../../production/external/horm.sh'

External--CalcAll initial TS guess: rxn3764

0 1
O  -1.47543910 -0.79303200  1.15003450
C  -1.08146980 -0.12487048 -0.02281752
C  -0.22262597  1.14016370  0.12554519
N   0.94211140  0.64358723 -0.68993056
C   1.26533140 -0.68430700 -0.13643672
C  -0.01409270 -0.81134250 -0.90902210
H  -0.72538290 -1.24771920  1.53849730
H  -2.00633700  0.05066448 -0.57057536
H   0.09897725  1.38586940  1.14385250
H  -0.64530270  2.03316190 -0.34618178
H   1.25540200 -0.69620556  0.95122180
H   2.16540770 -1.11850990 -0.56601137
H   0.44342044  0.22253984 -1.66817590

