%chk=ts_freq.chk
%nprocshared=4
#P wB97X/6-31G(d) opt(ts,calcfc,noeigentest,nomicro,maxcycles=150) freq

ReactOT exact pure Gaussian calcfc TS opt+freq: rxn8358

0 1
C   3.18155070  0.32637778  0.42334120
C   2.01486540 -0.30772004 -0.28758758
O   0.84365480 -0.12484072  0.46483090
C  -0.31221190 -0.64249150 -0.16021192
C  -1.50900470 -0.52864260  0.74611545
C  -2.75149060 -0.45446914 -0.08514935
C  -2.38751910  0.98941610  0.13419798
H   4.10350560  0.20806721 -0.14272118
H   2.98967480  1.39893450  0.55695620
H   3.30042300 -0.11608677  1.41046080
H   2.19769380 -1.39340230 -0.42986313
H   1.90754460  0.10971773 -1.30486080
H  -0.42623580 -0.21803388 -1.17098210
H  -0.19872452 -1.73953340 -0.29822496
H  -1.50174010  0.90353340  0.91474460
H  -2.69127770 -0.73919820 -1.14380290
H  -3.68766120 -0.76920235  0.38128343
H  -1.99962350  1.52485310 -0.74506630
H  -3.07342270  1.57272100  0.73653924

