%chk=ts_freq.chk
%nprocshared=4
#P wB97X/6-31G(d) opt(ts,calcfc,noeigentest,nomicro,maxcycles=150) freq

GSM eqV2 pure Gaussian calcfc TS opt+freq: rxn2738

0 1
C  -1.20914000  0.19497800  0.12724800
C  -0.28044700  1.08064400  0.50015800
N   0.85378100  0.40480900  1.01589600
C   1.45644500 -0.46440200  0.13957100
N   0.71538100 -1.42775900 -0.29422900
C  -0.45952900 -1.04300000  0.40733100
H  -2.23075500  0.27360100 -0.22126300
H  -0.32230600  2.16722000  0.53554300
H   2.50421200 -0.37240300 -0.15185700
H  -0.93912500 -1.91014800  0.88458900

