%chk=ts_freq.chk
%nprocshared=4
#P wB97X/6-31G(d) opt(ts,calcfc,noeigentest,nomicro,maxcycles=150) freq

GSM eqV2 pure Gaussian calcfc TS opt+freq: rxn6893

0 1
C  -1.87116400 -0.51359900 -0.48995000
C  -0.59194900  0.12594600 -0.07430200
C  -0.48287400  1.42559300  0.51029600
O   0.88957800  1.95800600  0.41368100
C   1.01534900  0.92490700  1.22274800
O   1.66165700  0.65765300  2.18184300
N   0.56715100 -0.47206100 -0.00357900
H  -1.69089000 -1.28679600 -1.24080300
H  -2.35580100 -1.00091700  0.36243700
H  -2.56968700  0.21270200 -0.91692400
H  -1.22048900  2.19978500  0.62645100
H   0.57479500 -1.48662300 -0.04904100

