%chk=ts_freq.chk
%nprocshared=4
#P Opt=(TS,CalcAll,NoEigenTest,NoMicro,MaxCycles=150) Freq External='../../../../../production/external/horm.sh'

External--CalcAll initial TS guess: rxn3217

0 1
O   1.70121900  0.68837600  0.15800400
C   1.54831200 -0.71190800  0.00765900
C   0.10096400 -1.09835400 -0.29259900
C  -0.80350300 -0.55097500  0.79776700
C  -2.29520300 -0.42122600  0.50285900
C  -0.97389300  0.91591600  0.90347100
H   1.40142700  0.93938400  1.04224800
H   1.90781300 -1.25080000  0.89573700
H   2.19659200 -0.99866300 -0.82798700
H   0.01858000 -2.19135800 -0.36865200
H  -0.19917200 -0.66798400 -1.25688400
H  -0.63343400 -1.04816000  1.76280100
H  -2.54150200 -0.48081400 -0.55684400
H  -2.93036500 -1.04307800  1.13191500
H  -0.94473200  1.30154600 -0.12715200
H  -2.57947600  0.62119400  0.91615800

