%chk=ts_freq.chk
%nprocshared=4
#P Opt=(TS,CalcAll,NoEigenTest,NoMicro,MaxCycles=150) Freq External='../../../../../production/external/horm.sh'

External--CalcAll initial TS guess: rxn2608

0 1
C  -0.41259700  1.76867400 -0.71473000
C  -1.03415100  0.55100700 -0.27540400
C  -0.49445300 -0.83642800 -0.48411400
C   0.45306100 -0.72809700  0.70235200
C   1.28507300  0.34288200  0.60256200
C   1.87183200  1.20207800 -0.07458000
H   0.03210700  1.84927200 -1.70055800
H  -0.61256300  2.68999300 -0.18850200
H  -1.61067500  1.31067100 -1.20796200
H  -1.75474600  0.60733400  0.54041600
H  -0.01367600 -0.96561300 -1.46291000
H  -1.25463500 -1.59773500 -0.30945500
H   0.12626900 -1.14147500  1.65957800
H   2.82654800  1.53678500 -0.42805200

