%chk=ts_freq.chk
%nprocshared=4
#P wB97X/6-31G(d) opt(ts,calcfc,noeigentest,nomicro,maxcycles=150) freq

GSM eqV2 pure Gaussian calcfc TS opt+freq: rxn966

0 1
C  -1.23045700  0.21738600 -0.00837400
C   1.11140300  0.82695900  0.13703500
C   1.59429400  1.70055100  0.31683500
C   1.03132600 -0.81628700  0.03197300
O  -0.08617600  0.21425900 -0.19386200
H  -2.80751500 -0.07872000 -0.12238200
H  -0.02379400 -0.28276300  0.69477600
H  -1.39048800 -0.66119300 -0.69934500
H   1.77149200 -2.44730600 -0.22989000

