%chk=ts_freq.chk
%nprocshared=4
#P wB97X/6-31G(d) opt(ts,calcall,noeigentest,nomicro,maxcycles=150) freq

ReactOT exact pure Gaussian calcall TS opt+freq: rxn7344

0 1
C  -0.13961259  1.42818400  0.32170066
C   0.35181916  0.00421873  0.14834177
C  -0.58864380 -0.85547810 -0.70402050
C  -1.88616540 -1.04504280 -0.03890215
N  -2.90067670 -1.16089330  0.50785610
C   1.73448660  0.14459221 -0.99142206
C   2.11811300 -0.36284520  0.09697445
H  -0.27028170  1.92577250 -0.63998910
H  -1.10464290  1.43210950  0.84052430
H   0.58174620  2.00581650  0.91662663
H   0.39146182 -0.46122977  1.13409160
H  -0.75752115 -0.40945667 -1.68044210
H  -0.13240200 -1.84072540 -0.86697763
H   2.60231920 -0.80502230  0.95563810

