%chk=ts_freq.chk
%nprocshared=4
#P Opt=(TS,CalcAll,NoEigenTest,NoMicro,MaxCycles=150) Freq External='../../../../../production/external/horm.sh'

External--CalcAll initial TS guess: rxn7016

0 1
C  -1.52575600 -1.50363200 -1.01411700
C  -0.24141500 -1.63799300 -0.22885800
C   0.96458500 -0.96012300 -0.53903000
C   2.23768000 -1.57798300 -0.03563900
O   2.17423500 -2.67007000 -0.85065900
C   1.03500400 -0.15436900 -1.71940500
N   1.05551700  0.57756600 -2.61723600
H  -2.23476900 -0.84159800 -0.50534100
H  -2.00099300 -2.48261700 -1.11935800
H  -1.34815900 -1.09795800 -2.01520600
H  -0.27208500 -2.08773400  0.76568700
H   0.59529100 -2.53327000 -0.74257700
H   3.11292000 -0.92908500 -0.20632400
H   2.20483400 -1.76969700  1.05367300

