%chk=ts_freq.chk
%nprocshared=4
#P wB97X/6-31G(d) opt(ts,calcfc,noeigentest,nomicro,maxcycles=150) freq

ReactOT exact pure Gaussian calcfc TS opt+freq: rxn6578

0 1
C   1.73173680  0.64217824 -0.70784580
N   0.42174230  0.71331710 -0.52047700
C  -0.15372568 -0.38383937  0.00975456
N   0.54773474 -1.37176080  0.49084145
C  -1.65682690 -0.31317085  0.20990835
O  -2.23094960 -1.26239700  0.73569330
N  -2.25625800  0.80911430 -0.21594219
H   2.19083980 -0.26594020 -1.10101250
H   2.32838870  0.07079111  0.78947794
H   2.28316450  1.57601270 -0.82635980
H  -0.03445124 -2.03188700  1.00091040
H   1.80215560 -0.64620720  0.90222590
H  -1.72054520  1.54156350 -0.64925516
H  -3.25300570  0.92222565 -0.11791953

