%chk=ts_freq.chk
%nprocshared=4
#P Opt=(TS,CalcAll,NoEigenTest,NoMicro,MaxCycles=150) Freq External='../../../../../production/external/horm.sh'

External--CalcAll initial TS guess: rxn3345

0 1
C  -1.51371190  0.51284830  0.41797316
C  -0.54743680  0.72530997 -0.73214040
C   0.90670730  0.93149300 -0.30507022
C   1.24226070 -0.33895370  0.50723130
C   0.31490840 -1.40078250 -0.11831720
C  -0.87258434 -0.73292590 -0.81356810
H  -1.08468520  0.60536873  1.41437380
H  -2.48455450  0.98311645  0.29060903
H  -0.91169006  1.39453220 -1.51335780
H   1.52397350  0.97621053 -1.20573350
H   1.06378390  1.85683940  0.26569912
H   1.02200930 -0.19602293  1.57077440
H   2.30010990 -0.60923720  0.45100558
H   0.06260148 -2.23094130  0.54744440
H   0.82580525 -1.84935640 -1.00367400
H  -1.84749650 -0.62749830  0.22675085

