%chk=ts_freq.chk
%nprocshared=4
#P wB97X/6-31G(d) opt(ts,calcfc,noeigentest,nomicro,maxcycles=150) freq

GSM eqV2 pure Gaussian calcfc TS opt+freq: rxn5061

0 1
C  -1.29240500 -0.90281000  0.03371400
N  -1.64965800  0.52220700  0.04140200
C  -0.39272900  0.16936800 -0.43700600
C   0.88082200  0.50044000  0.34683000
C   1.96243800  0.05338600 -0.61787900
C   1.45174600  1.33898700 -1.27558800
O   1.08424900  1.87018700 -0.03616800
H  -1.03396000 -1.39692800  0.97122700
H  -1.88005900 -1.49625500 -0.66052700
H  -1.65271100  1.01275800  0.93219500
H   0.91300400  0.35578500  1.44488200
H   1.80942900 -0.87309700 -1.17485100
H   2.97640400  0.13533500 -0.22169400
H   0.31332800  0.98496400 -1.70834800

