%chk=ts_freq.chk
%nprocshared=4
#P Opt=(TS,CalcAll,NoEigenTest,NoMicro,MaxCycles=150) Freq External='../../../../../production/external/horm.sh'

External--CalcAll initial TS guess: rxn3177

0 1
C  -1.62774700 -0.47076800 -1.07531400
C  -0.35689800  0.02262600 -0.42810500
C   0.79554800 -0.76177000 -0.45576800
C   2.05269700 -1.06082800 -0.54844100
C  -0.35252500  1.33290600  0.12404500
C  -0.38572200  2.43313200  0.62197700
H  -1.79807700  0.11771800 -1.98482200
H  -1.53432300 -1.52238300 -1.36106500
H  -2.50379200 -0.34682400 -0.42949600
H   0.13425800 -1.37477600  0.30926500
H   2.57477500 -1.65376700  0.20089800
H  -0.39682600  3.41369800  1.04530200

