%chk=ts_freq.chk
%nprocshared=4
#P wB97X/6-31G(d) opt(ts,calcall,noeigentest,nomicro,maxcycles=150) freq

ReactOT exact pure Gaussian calcall TS opt+freq: rxn8034

0 1
C   1.57846070  0.37243800 -0.40225363
O   1.27648090 -0.16337799  0.76158140
C   0.07129361 -0.55080736  1.04438210
C  -1.10557020  0.34031360  0.83759480
O  -1.36482860  0.43258905 -0.58120530
C  -0.68893850 -0.54361950 -1.25741980
O  -1.02968560 -0.86209023 -2.36586520
H   0.46943882 -0.64866734 -1.06170770
H   2.63836980  0.34762594 -0.62863857
H   1.05275960  1.25374960 -0.74510590
H   0.05310645 -1.27538360  1.86448160
H  -0.95499210  1.37713970  1.18837240
H  -1.99589490 -0.07990985  1.34578380

