%chk=ts_freq.chk
%nprocshared=4
#P wB97X/6-31G(d) opt(ts,calcall,noeigentest,nomicro,maxcycles=150) freq

GSM eqV2 pure Gaussian calcall TS opt+freq: rxn7071

0 1
O  -2.18425100 -1.77142700  0.69547200
C  -1.26226500 -1.06208900  0.41253400
C  -0.13369200 -0.90342800 -0.71298700
C   0.65574400  0.04239600  0.10928600
C   1.23206000  0.80484000  0.90164900
C  -0.83043700  0.07902600  1.32600500
N  -0.93289200  0.91848900  2.17508400
H  -0.61078000 -0.38374900 -1.52298500
H   0.37424900 -1.83033600 -1.08463400
H   0.30369300  1.34802500  1.84661500

