%chk=ts_freq.chk
%mem=6GB
%nprocshared=4
#P opt(ts,calcall,noeigentest,nomicro,maxcycles=150) freq External='../../../../../production/external/horm.sh'

GSM eqV2 C eqV2-EFH calcall TS opt+freq: rxn8866

0 1
C   1.97447300  0.13227500  1.39265600
C   1.25689500 -0.50320600 -0.62817100
C   0.17445400  0.47450900 -0.78338600
C  -1.07801500 -0.04495800 -1.48985500
C  -1.19575600  0.44670500 -0.09975300
C  -1.50683700 -0.49487200  1.03687100
O  -1.83348000  1.69201400 -0.00100600
H   2.97843900 -0.02869500  1.79669900
H   1.24048600 -0.44855900  1.94738300
H   1.71846100  1.19113900  1.36842200
H   0.86975500 -1.46607500 -0.25975800
H   2.20515200 -0.22810800  0.22463100
H   0.46082600  1.47963100 -1.09343500
H  -1.14238600 -1.11579000 -1.66743000
H  -1.48333200  0.57811500 -2.28062300
H  -2.58831200 -0.65232100  1.10008600
H  -1.16796500 -0.07644400  1.99379200
H  -1.02360300 -1.46707700  0.90373800
H  -1.48230400  2.13624000  0.78216500

