%chk=ts_freq.chk
%mem=6GB
%nprocshared=4
#P Opt=(TS,CalcAll,NoEigenTest,NoMicro,MaxCycles=150) Freq External='../../../../../production/external/horm.sh'

External--CalcAll initial TS guess: rxn9803

0 1
C  -2.11812970  0.40499857  0.20671399
C  -0.50812227  0.15233918  0.07874806
C   0.07068685 -0.90596330 -0.45162904
O   1.49378820 -0.92361605 -0.46149445
C   2.11315680  0.07589196  0.05030483
O   3.40856800 -0.12285657 -0.07090177
N  -0.55840660  1.27929270  0.63791180
H  -2.52410360  1.28636250  0.67961150
H  -2.44621900  0.39108285 -0.83476055
H  -2.43150350 -0.47298324  0.77662337
H  -0.37992734 -1.76999460 -0.91209805
H   3.88021300  0.60544610  0.30097032

