%chk=ts_freq.chk
%nprocshared=4
#P wB97X/6-31G(d) opt(ts,calcfc,noeigentest,nomicro,maxcycles=150) freq

ReactOT exact pure Gaussian calcfc TS opt+freq: rxn479

0 1
N   2.27704220 -0.33270884  0.56808406
C   2.09550900  0.04733482 -0.61824703
C   0.74842470 -0.11012160  0.00380411
C  -0.31410858  0.94258374  0.29335803
C  -1.30142800 -0.11229227 -0.24457419
N  -0.21394262 -1.12794380 -0.28622982
H   1.27835940 -0.45283508  1.17535410
H  -0.45916334  1.20645130  1.34240380
H  -0.19008365  1.85014460 -0.30313382
H  -1.73962910  0.12959252 -1.21154420
H  -2.10037680 -0.41812298  0.44359280
H  -0.08060350 -1.62208260 -1.16286790

