%chk=ts_freq.chk
%nprocshared=4
#P wB97X/6-31G(d) opt(ts,calcfc,noeigentest,nomicro,maxcycles=150) freq

ReactOT exact pure Gaussian calcfc TS opt+freq: rxn9855

0 1
C  -2.01160070  0.82732710  0.99618290
C  -1.80264940 -0.38611510  0.12449077
N  -0.51077300 -0.41161165 -0.51429460
C   0.54085046 -0.94839644  0.01120435
O   1.01898480 -1.48820500  0.96750470
O   1.49008520 -0.52301190 -1.18986260
C   2.64945550  0.19243822 -0.75477830
H  -1.84780100  1.73629830  0.40147328
H  -3.02276090  0.84822124  1.41300850
H  -1.30140770  0.81286836  1.83255180
H  -1.91691610 -1.29823980  0.72095910
H  -2.55336070 -0.42320454 -0.67549780
H   0.45421410 -0.04789387 -1.41274180
H   3.28159360  0.37710536 -1.61648180
H   2.37650100  1.15155240 -0.29124957
H   3.15558460 -0.41913262 -0.01246872

