%chk=ts_freq.chk
%nprocshared=4
#P wB97X/6-31G(d) opt(ts,calcall,noeigentest,nomicro,maxcycles=150) freq

ReactOT exact pure Gaussian calcall TS opt+freq: rxn4496

0 1
C  -1.62472590  0.64328015  0.28360587
C  -0.69010645 -0.54643720  0.00639347
C   0.49002978  0.01188752 -0.74251450
C   1.70107700  0.20827702  0.08105324
O   1.89144050 -1.07854000 -0.52282140
H  -2.53339720  0.30007854  0.78486420
H  -1.14067160  1.39632830  0.91751820
H  -1.90232280  1.13931470 -0.65381926
H  -1.22282110 -1.28949420 -0.59288020
H  -0.40542290 -1.02908200  0.95525280
H   1.37723480 -0.80918530 -1.46611480
H   2.43854900  0.96010005 -0.21633340
H   1.62113680  0.09347229  1.16579580

