%chk=ts_freq.chk
%nprocshared=4
#P wB97X/6-31G(d) opt(ts,calcfc,noeigentest,nomicro,maxcycles=150) freq

ReactOT exact pure Gaussian calcfc TS opt+freq: rxn1758

0 1
C  -1.08731100 -0.87391496  0.00001535
C   0.15472893 -0.33420740  0.43622060
C   1.50055530 -0.28439885 -0.38616428
O   1.58654270  1.13566720 -0.35179165
C   0.22304201  1.10808750 -0.03406610
H  -1.76176240  0.69750005  0.63997710
H  -1.67141510 -1.53084530  0.64351684
H  -1.32709160 -0.91004260 -1.07288900
H   0.34228054 -0.44013450  1.50087070
H   1.36630360 -0.62727463 -1.41889490
H   2.34661340 -0.77840805  0.08619226
H  -1.27655850  1.39395790  0.83328150
H  -0.39592782  1.44401360 -0.87626840

