%chk=ts_freq.chk
%nprocshared=4
#P Opt=(TS,CalcAll,NoEigenTest,NoMicro,MaxCycles=150) Freq External='../../../../../production/external/horm.sh'

External--CalcAll initial TS guess: rxn293

0 1
C  -1.23245700  0.84274200  0.26378000
C  -1.10247000 -0.64163200  0.53254500
O  -0.91397400 -1.38887300 -0.65494300
C   0.21638700 -1.23334600  0.19627700
C   1.50697400 -0.13844300 -0.22098700
C   2.15879000 -0.09014800 -0.26690500
H  -0.53064800  1.15197000 -0.52014000
H  -1.09563100  1.47439200  1.14078100
H  -2.23575700  1.03621800 -0.11599300
H  -1.69116700 -1.16843100  1.29735100
H   0.61807000 -2.14072400  0.64838700
H   3.11094400  0.25408100 -0.57583300

