%chk=ts_freq.chk
%nprocshared=4
#P wB97X/6-31G(d) opt(ts,calcfc,noeigentest,nomicro,maxcycles=150) freq

ReactOT exact pure Gaussian calcfc TS opt+freq: rxn2349

0 1
C  -0.11877267  1.17346260  0.02088371
C  -1.10622160  0.27162725 -0.08843481
C  -0.91742100 -1.14709770  0.02074436
N   0.24650075 -1.65968290  0.19717968
C   1.44150780 -1.72259150  0.54792243
C   1.02004060  1.82292600  0.34060168
H  -0.33178765  2.32962400  0.07757315
H  -2.12157300  0.62775890 -0.25874200
H  -1.77228220 -1.81035390 -0.02305108
H   2.12292840 -2.04415040 -0.24858627
H   1.53708050  2.15847750 -0.58609080

