%chk=ts_freq.chk
%nprocshared=4
#P wB97X/6-31G(d) opt(ts,calcall,noeigentest,nomicro,maxcycles=150) freq

ReactOT exact pure Gaussian calcall TS opt+freq: rxn6514

0 1
N   2.25547700 -0.19422644  0.05305588
C   1.00916490 -0.11792509  0.02542873
C  -0.00012037 -1.17904810  0.06268755
C  -1.24897560 -0.65378773  0.01098826
C  -0.93986917  0.75992167 -0.05822650
O  -1.97652020  1.44841210 -0.11446651
O   0.33276210  1.12470560 -0.05341132
H   2.71003460  0.71129495  0.01353851
H   0.32857445 -2.21043250  0.12376390
H  -2.47052760  0.31108555 -0.06335847

