%chk=ts_freq.chk
%nprocshared=4
#P wB97X/6-31G(d) opt(ts,calcfc,noeigentest,nomicro,maxcycles=150) freq

GSM eqV2 pure Gaussian calcfc TS opt+freq: rxn5584

0 1
O   0.51474000  2.85302400 -2.20841600
C   0.21336900  1.90915500 -1.54852400
C   0.95067600  1.16955400 -0.34543100
N  -0.39202700  0.56668000 -0.13148400
C  -1.63738000 -0.24925200  0.21366100
C  -2.33107000  0.86867300 -0.67052300
C  -0.97190300  0.88835200 -1.44216900
H   1.71137600  0.46625000 -0.70124700
H   1.31680300  1.75844400  0.49785700
H  -1.81058900 -0.30818000  1.28931300
H  -1.55669000 -1.25023900 -0.23376600
H  -1.00207200  1.41271100  0.26021100
H  -3.19277500  0.50696700 -1.24613700
H  -0.79510400  0.07132500 -2.16929900

