%chk=ts_freq.chk
%nprocshared=4
#P Opt=(TS,CalcAll,NoEigenTest,NoMicro,MaxCycles=150) Freq External='../../../../../production/external/horm.sh'

External--CalcAll initial TS guess: rxn7030

0 1
C  -1.97169730 -0.58885310 -0.08388445
N  -0.83934350  0.29551554 -0.12911710
C   0.37098380  0.10667939 -0.80897950
C   1.32786990  1.10211040 -0.48624160
C   1.57174240 -0.73285080  0.13268659
C   0.54530907  1.76124640  0.56518567
N  -0.68225840  1.31534620  0.73878250
H  -2.17723040 -0.94197740 -1.10371740
H  -2.82239650 -0.02176954  0.27467160
H  -1.79133960 -1.45007970  0.56528574
H   0.33030990 -0.49243620 -1.72261550
H   2.23462490 -1.21010400 -0.58703940
H   0.89412010 -1.46559170  0.58343935
H   2.16186760 -0.30105808  0.92658240
H   0.84743834  2.62382220  1.13496110

