%chk=ts_freq.chk
%nprocshared=4
#P wB97X/6-31G(d) opt(ts,calcfc,noeigentest,nomicro,maxcycles=150) freq

GSM eqV2 pure Gaussian calcfc TS opt+freq: rxn2839

0 1
C  -0.81278700 -0.77161400 -0.43511100
C   0.85973600 -0.07778100  0.42349800
N   2.02306700  0.38099300 -0.70707700
C   0.60701200  1.23117200 -0.18403100
C  -1.33320700 -0.25605500 -0.35142400
N  -0.50491900 -0.10191200 -0.82141900
H  -1.05712100 -0.00179000 -1.44935800
H  -1.03987100 -1.84676100 -0.84266100
H  -1.61352200 -0.50393400  0.26896000
H   1.26899500 -0.27598700  1.50365800
H   1.57613700 -0.36191400 -1.61604700
H   0.61652400  2.06419000  0.90915800

