%chk=ts_freq.chk
%nprocshared=4
#P Opt=(TS,CalcAll,NoEigenTest,NoMicro,MaxCycles=150) Freq External='../../../../../production/external/horm.sh'

External--CalcAll initial TS guess: rxn541

0 1
C  -1.58753240  0.67180240 -0.82612230
C  -0.71117020 -0.16422346  0.04870059
C  -1.05721520 -0.26277970  1.51318570
C   1.13656990 -0.15909551 -0.12978445
O   0.70644430  1.03061040  0.11772578
C   2.49104950 -0.36610252 -0.59993340
H  -1.16590610  0.76970696 -1.83263220
H  -1.72229610  1.67621400 -0.41681308
H  -2.55861350  0.18068132 -0.92327935
H  -0.67233910 -1.18242050 -0.38708323
H  -1.11888240  0.73004050  1.96953950
H  -0.28397933 -0.83192110  2.04199860
H  -2.01407170 -0.77563584  1.62187280
H   2.96694300 -1.19314980 -0.06296712
H   2.52224540 -0.67580830 -1.65619040
H   3.06875440  0.55208117 -0.47821730

