%chk=ts_freq.chk
%nprocshared=4
#P Opt=(TS,CalcAll,NoEigenTest,NoMicro,MaxCycles=150) Freq External='../../../../../production/external/horm.sh'

External--CalcAll initial TS guess: rxn3168

0 1
O  -1.73708000  0.34339700  0.42705300
C  -1.62314900 -1.09216900  0.18033100
C  -0.15838800 -1.01578700 -0.22738200
O  -0.08873200 -0.90711300 -1.61907700
C  -0.08612400  0.40567400  0.42222100
O   0.01007500  1.40326300 -0.40917000
H  -1.25827200  0.99844600 -0.45105100
H  -2.32800800 -1.44146100 -0.57395400
H  -1.77818500 -1.59963300  1.13403100
H   0.53949600 -1.76920600  0.17487900
H   0.56401700 -0.20983400 -1.80632500
H   0.29305300  0.49061000  1.44635800

