%chk=ts_freq.chk
%nprocshared=4
#P wB97X/6-31G(d) opt(ts,calcfc,noeigentest,nomicro,maxcycles=150) freq

ReactOT exact pure Gaussian calcfc TS opt+freq: rxn2564

0 1
N   1.93455120 -0.57765234  0.09064951
C   0.95104680  0.66166050 -0.15909724
O   1.37686650  1.70461360 -0.54114926
C  -0.21520235  0.04283077  0.41716460
C  -1.32462910 -0.51803607 -0.45582774
C  -1.57629600  0.63647830  0.47779770
H   2.01452100 -1.19668070 -0.70668900
H   2.85412980 -0.25535990  0.40221250
H   0.94719750 -0.81684166  0.81360840
H  -1.33548560 -0.27762306 -1.52931080
H  -1.73656750 -1.48598960 -0.19954483
H  -2.16961550  0.45541543  1.36589320
H  -1.72051660  1.62718470  0.02429298

