%chk=ts_freq.chk
%nprocshared=4
#P wB97X/6-31G(d) opt(ts,calcfc,noeigentest,nomicro,maxcycles=150) freq

GSM eqV2 pure Gaussian calcfc TS opt+freq: rxn1249

0 1
C  -1.56977900 -0.17201000  0.04038800
N  -0.18433500  0.27531500 -0.11922400
C   1.24965300  1.91391500 -0.02042500
N   2.05288700  1.16363900  0.52137600
C   1.85565400 -0.18528600  0.63191100
N   0.65545800 -0.60851600  0.31088000
H  -1.76324800 -1.04827100 -0.59172100
H  -1.80163300 -0.41010800  1.08031500
H  -2.22619100  0.64309200 -0.29017200
H   0.07310800  1.80259400  0.20968600
H   2.59998800 -0.83484700  1.06435100

