%chk=ts_freq.chk
%nprocshared=4
#P Opt=(TS,CalcAll,NoEigenTest,NoMicro,MaxCycles=150) Freq External='../../../../../production/external/horm.sh'

External--CalcAll initial TS guess: rxn5211

0 1
C   2.74863400 -0.33742800 -0.18916500
C   1.25888800 -0.08835300 -0.12447700
C   0.33225300 -1.17780600 -0.30420900
C  -0.93897400 -0.72502100 -0.12310000
N  -2.24843800 -1.28342400 -0.00518800
C  -1.49697900  0.41607300  0.33267000
O   0.82507100  1.05744400  0.07802300
H   3.13213600  0.05583000 -1.13840500
H   3.00049200 -1.40004600 -0.13083300
H   3.24954600  0.21288600  0.61208600
H   0.59341400 -2.20291500 -0.53178900
H  -2.50260600 -1.85670100  0.78423400
H  -2.91522900 -1.22773500 -0.75775800
H  -2.16905400  1.10365600 -0.17008600

