%chk=ts_freq.chk
%mem=6GB
%nprocshared=4
#P Opt=(TS,CalcAll,NoEigenTest,NoMicro,MaxCycles=150) Freq External='../../../../../production/external/horm.sh'

External--CalcAll initial TS guess: rxn9322

0 1
O   2.35902640 -0.59377885  0.17334016
C   1.50501600  0.18601404  0.79064226
C   0.34584728  0.72001636 -0.01122127
C  -0.40696526 -0.35455018 -0.81301030
C  -1.50947750 -0.10927310  0.21111055
O  -0.77903074  0.99235000  0.79543800
H   2.52504970 -0.33152950  1.29265510
H   0.69999390  1.59243670 -0.57118547
H   0.06651541 -1.33835420 -0.81828320
H  -0.65607000 -0.06213076 -1.83446840
H  -1.66026200 -0.91828870  0.94303340
H  -2.48964300  0.21708809 -0.15805084

