%chk=ts_freq.chk
%nprocshared=4
#P wB97X/6-31G(d) opt(ts,calcall,noeigentest,nomicro,maxcycles=150) freq

GSM eqV2 pure Gaussian calcall TS opt+freq: rxn4956

0 1
O   2.78054900 -1.34088400  2.26600300
C   1.76638000 -1.08715800  1.59671500
N   1.37854000 -2.20233600  0.93981300
C  -0.82444600 -1.75012900  0.32334000
C  -1.03048700 -0.29700600  0.71674900
C   0.22315200  0.53903300  0.50846600
N   1.24799100  0.16435000  1.46914100
H   0.00248700 -2.36426700  0.99751800
H  -0.54237700 -1.90656400 -0.72279200
H  -1.69197300 -2.38066000  0.58939700
H  -1.32220600 -0.24941000  1.77487500
H  -1.86543900  0.09163100  0.11946400
H   0.01094400  1.59572400  0.66783600
H   0.58862600  0.41675100 -0.52796600
H   1.77031100  0.86553500  1.96479200

