%chk=ts_freq.chk
%mem=6GB
%nprocshared=4
#P Opt=(TS,CalcAll,NoEigenTest,NoMicro,MaxCycles=150) Freq External='../../../../../production/external/horm.sh'

External--CalcAll initial TS guess: rxn7769

0 1
C  -1.05338970 -1.03863250  0.61848810
C  -0.19402227  0.09198182  0.11607530
C  -0.68336160  0.98527056 -0.98923916
N  -0.55102330  1.53100570  0.31535766
C   1.51195670 -0.49196460 -0.37677783
O   1.45375410 -1.35939600 -1.19894000
N   2.24190970  0.18623987  0.42304850
H  -2.10878800 -0.82014120  0.45211992
H  -0.81159970 -1.96424160  0.09316187
H  -0.90988720 -1.20803030  1.69109390
H   0.01992048  1.37974060 -1.72546090
H  -1.66935810  0.73987020 -1.37509660
H  -1.39610290  1.58063080  0.85339403
H   0.91110516  0.39556000  0.75302154
H   3.23888640 -0.00789328  0.34975368

