%chk=ts_freq.chk
%nprocshared=4
#P wB97X/6-31G(d) opt(ts,calcall,noeigentest,nomicro,maxcycles=150) freq

ReactOT exact pure Gaussian calcall TS opt+freq: rxn3329

0 1
C  -1.91397600 -0.19059800 -0.64417535
C  -0.94057655  0.41103145  0.31383586
C   0.92568800  0.31177744  0.17299356
O   0.40785307  0.59297590 -0.93349020
C   2.27060320 -0.08885815  0.33608043
C   3.37337040 -0.45498103  0.66140234
H  -2.88032650 -0.27630496 -0.14115220
H  -1.59229300 -1.20709180 -0.92751986
H  -2.02285580  0.40022060 -1.55802110
H  -0.88720450 -0.16898243  1.26036580
H  -1.07725330  1.46780980  0.52623180
H   4.33697030 -0.79699890  0.93344880

