%chk=ts_freq.chk
%nprocshared=4
#P Opt=(TS,CalcAll,NoEigenTest,NoMicro,MaxCycles=150) Freq External='../../../../../production/external/horm.sh'

External--CalcAll initial TS guess: rxn2757

0 1
C  -0.81777066  1.45951200  0.14444947
C  -0.14399110  0.12782197  0.06300577
N  -0.72685350 -0.92413100 -0.56798770
O  -0.57091314 -2.08220770  0.25740500
C   1.29271080 -0.03665248  0.34391308
O   1.49529420 -0.04393360 -1.05659390
H  -1.83512530  1.40072200 -0.25810456
H  -0.89482623  1.75814960  1.19074370
H  -0.21622986  2.17578770 -0.40144572
H  -1.09946140 -2.74734400 -0.19086940
H   1.54665120 -0.97882870  0.84566855
H   1.74120970  0.81716670  0.86705923
H   0.22930521 -0.92606270 -1.23724350

