%chk=ts_freq.chk
%nprocshared=4
#P Opt=(TS,CalcAll,NoEigenTest,NoMicro,MaxCycles=150) Freq External='../../../../../production/external/horm.sh'

External--CalcAll initial TS guess: rxn2337

0 1
C  -1.61005590 -0.32279623 -0.02047623
C  -0.18131077  0.11748119  0.06148516
C   0.40844724  1.40615530 -0.13652240
N   1.80150560  1.08322920 -0.23021443
C   1.91037550 -0.20166141 -0.21933454
O   0.78318280 -0.89045360 -0.02850380
H  -1.82774200 -1.11309270  0.70171785
H  -2.25093630  0.53628564  0.17579588
H  -1.81285040 -0.68729970 -1.03289000
H  -0.03335800  0.85078550  1.04165500
H   2.81274250 -0.77863324 -0.31271252

