%chk=ts_freq.chk
%nprocshared=4
#P wB97X/6-31G(d) opt(ts,calcfc,noeigentest,nomicro,maxcycles=150) freq

GSM eqV2 pure Gaussian calcfc TS opt+freq: rxn7756

0 1
C  -1.94252400 -0.41536600 -0.80445400
C  -1.38961100 -0.34218400  0.62137900
C  -2.18795300  0.66250900  1.45285600
C   0.10514700  0.02185800  0.65428700
C   0.91092600 -1.08366200  0.00811300
C   2.71634300 -0.38369700  0.08823300
O   0.98082300 -2.25235300  0.62393700
H  -3.00488900 -0.68304100 -0.79115300
H  -1.42551600 -1.16519500 -1.41332100
H  -1.84929700  0.55538700 -1.30978300
H  -1.48304800 -1.33335400  1.08292900
H  -3.24850500  0.38700200  1.48583400
H  -2.11978200  1.66939500  1.02080200
H  -1.81992900  0.71111100  2.48397500
H   0.42716800  0.10533300  1.69794900
H   0.27393000  0.98566300  0.15437200
H   0.83826500 -1.09135200 -1.09677300
H   2.86479100  0.08636900  1.06278900
H   2.57394300  0.36308500 -0.69422800
H   3.60557400 -0.96984600 -0.18893700
H   2.10199900 -1.57056000  0.32390100

