%chk=ts_freq.chk
%mem=6GB
%nprocshared=4
#P Opt=(TS,CalcAll,NoEigenTest,NoMicro,MaxCycles=150) Freq External='../../../../../production/external/horm.sh'

External--CalcAll initial TS guess: rxn9201

0 1
C   2.06369780  0.35496166 -0.07589292
C   0.92050910 -0.45778000  0.43117926
O   0.01117276  0.22016583  1.35017530
C  -0.45759925 -0.18964124  0.18426980
C  -1.50046770  0.37852567 -0.71555537
O  -2.65954450  0.56182677 -0.19855360
H   1.71571640  1.34933140 -0.37383834
H   2.52440210 -0.13283510 -0.94648600
H   2.83259180  0.48224990  0.68992360
H   1.17332500 -1.47283220  0.77899486
H  -1.91314290 -1.40399700  0.80991143
H  -1.41384760 -0.12734517 -1.70762520
H  -0.82849187  1.31239870 -0.83909960
H  -2.46832100 -0.87502920  0.61259680

