%chk=ts_freq.chk
%nprocshared=4
#P wB97X/6-31G(d) opt(ts,calcfc,noeigentest,nomicro,maxcycles=150) freq

GSM eqV2 pure Gaussian calcfc TS opt+freq: rxn8543

0 1
C   1.67621200  0.48232700 -0.14308300
C   0.26710600  0.04918900 -0.47955300
C  -0.93109800  0.64958300  0.21290100
C  -1.99259300  0.14678100 -0.72884900
O  -1.73602100  0.10759500 -1.97862800
C  -0.16490100 -0.36122200 -1.86051000
C  -0.14192500 -1.33711600 -0.85404200
H   1.91101900  0.23283300  0.89916200
H   2.39673200 -0.04244400 -0.77766600
H   1.82630000  1.56187900 -0.26637000
H  -0.98890100  1.75887300  0.22196200
H  -1.06942300  0.29120900  1.23688200
H  -3.04182500  0.16761300 -0.41950600
H   0.20851800 -0.16918100 -2.86142700
H   0.21883300 -2.34515200 -0.71445800

