%chk=ts_freq.chk
%mem=6GB
%nprocshared=4
#P Opt=(TS,CalcAll,NoEigenTest,NoMicro,MaxCycles=150) Freq External='../../../../../production/external/horm.sh'

External--CalcAll initial TS guess: rxn7896

0 1
C  -2.22163500 -0.07747305 -0.13814363
C  -0.70243840  0.01022638 -0.08953641
N  -0.06244459  1.18104610 -0.23132592
O  -0.04157469 -1.08979930  0.02778112
C   1.76132710 -0.73238736  0.73713934
C   2.11294910  0.13646536 -0.28604868
O   1.58910560  1.29383370 -0.25729772
H  -2.56015350 -0.85998740  0.53788245
H  -2.69117600  0.87247450  0.12827578
H  -2.53048280 -0.34302732 -1.14831890
H  -0.70887230  1.94069210 -0.46803048
H   1.35028310 -0.37853184  1.66997290
H   2.11154500 -1.76206900  0.72990304
H   2.59356740 -0.19146292 -1.21225290

