%chk=ts_freq.chk
%nprocshared=4
#P wB97X/6-31G(d) opt(ts,calcall,noeigentest,nomicro,maxcycles=150) freq

ReactOT exact pure Gaussian calcall TS opt+freq: rxn6198

0 1
O  -1.30410990  1.15654150  0.13810802
C  -0.76933455 -0.76326310  0.02621189
C   0.61239150 -0.77790750 -0.45197982
C   0.88798517  0.75224733 -0.72226024
C  -0.02434628  1.61642060 -0.36631536
C   1.57174430 -1.30881710  0.51213926
N   2.28600840 -1.73536410  1.30725820
H  -1.42988490  1.52950510  1.02256390
H  -0.98447250 -0.91879606  1.07292250
H  -1.56933680 -0.95918860 -0.67028236
H   0.70433540 -1.29255630 -1.41403570
H   0.01902011  2.70117830 -0.45433033

