%chk=ts_freq.chk
%nprocshared=4
#P wB97X/6-31G(d) opt(ts,calcfc,noeigentest,nomicro,maxcycles=150) freq

GSM eqV2 pure Gaussian calcfc TS opt+freq: rxn4317

0 1
C  -1.63304200 -0.48952800  0.48859100
C  -0.28759600 -0.24342200  0.12313400
C   0.60978900 -1.40473800  0.26121800
O  -0.07667400 -1.71542800 -0.95107500
C   0.14964700  0.91471900 -0.60749600
N   0.48325700  1.89141900 -1.13160300
H  -2.39676900  0.18940800  0.12139300
H  -1.23673500 -1.53695500 -0.40346900
H  -1.80719400 -0.93697900  1.46586100
H   1.67616300 -1.24220700  0.10452600
H   0.39681500 -2.07132100  1.10094200

