%chk=ts_freq.chk
%nprocshared=4
#P wB97X/6-31G(d) opt(ts,calcall,noeigentest,nomicro,maxcycles=150) freq

ReactOT exact pure Gaussian calcall TS opt+freq: rxn7298

0 1
C   1.96492100 -0.28526792  0.04702736
C   0.54923000  0.08084720 -0.17725983
N   0.02761138  0.31349185 -1.53423260
C  -0.71005440 -0.59179370 -1.05219970
C  -1.51131130 -0.03331199  0.51047766
O  -2.46040630  0.93329770  0.55827810
N  -0.29957202  0.44598470  0.87030864
H   2.43520210 -0.62002120 -0.87499840
H   2.05992030 -1.04808350  0.82700557
H   2.51850340  0.59824544  0.41006250
H  -1.17166390 -1.44783370 -1.54911230
H  -3.31266430  0.51342560  0.39032670
H  -0.08971606  1.14101950  1.57431650

