%chk=ts_freq.chk
%nprocshared=4
#P Opt=(TS,CalcAll,NoEigenTest,NoMicro,MaxCycles=150) Freq External='../../../../../production/external/horm.sh'

External--CalcAll initial TS guess: rxn6955

0 1
N  -1.92530100 -1.00474760  0.01214319
C  -1.12666990 -0.08208833  0.04257137
O   0.95267886 -1.12721660  0.04903129
C   1.60830820 -0.08506051 -0.06537116
O   1.13672900  1.13420500 -0.13286331
C  -0.52671630  1.16085660  0.04542482
N  -1.25522600  2.09603900  0.14784513
H  -1.58312070 -1.95569940 -0.00627611
H   2.71931770 -0.13628823 -0.09250522

