%chk=ts_freq.chk
%nprocshared=4
#P wB97X/6-31G(d) opt(ts,calcall,noeigentest,nomicro,maxcycles=150) freq

ReactOT exact pure Gaussian calcall TS opt+freq: rxn416

0 1
C  -2.27733230  0.33245400  0.24161000
N  -0.46915543 -0.17850640 -0.44476122
C   0.21344644 -1.16053180  0.25845113
C   1.50831330 -0.76677650  0.37547404
C   1.63561450  0.50769200 -0.24931102
C   0.42209630  0.83639383 -0.76040270
H  -2.12857820 -0.10316056  1.23760500
H  -1.45647230 -0.31827304 -0.85462730
H  -2.02247240  1.39542580  0.34245658
H  -0.31783940 -2.05194100  0.56578490
H   2.29176640 -1.30490950  0.89411336
H   2.53403330  1.10909040 -0.30242574
H   0.06658015  1.70304250 -1.30396700

