%chk=ts_freq.chk
%mem=6GB
%nprocshared=4
#P Opt=(TS,CalcAll,NoEigenTest,NoMicro,MaxCycles=150) Freq External='../../../../../production/external/horm.sh'

External--CalcAll initial TS guess: rxn7981

0 1
C   1.48837470 -1.08617410 -0.17159614
C   0.30937886 -0.73314880  0.65956200
N   0.78400860  1.28021900  1.34891700
C  -0.34211057  1.41711540  0.72534680
O  -1.12955100  2.29801850  0.36734238
C  -0.89064650 -0.15980664  0.19895728
C  -1.25653720 -0.08537915 -1.27445110
H   1.52605820 -0.52042940 -1.10432820
H   1.42439760 -2.14054600 -0.44401482
H   2.41305780 -0.91686040  0.38448521
H   0.36840457 -1.00828310  1.71108870
H   1.09610700  2.19083800  1.68455820
H  -1.74413810 -0.37261158  0.84340060
H  -0.38431108  0.07673559 -1.91281550
H  -1.92647900  0.76727140 -1.40338840
H  -1.73601390 -1.00695880 -1.61306420

