%chk=ts_freq.chk
%nprocshared=4
#P wB97X/6-31G(d) opt(ts,calcfc,noeigentest,nomicro,maxcycles=150) freq

GSM eqV2 pure Gaussian calcfc TS opt+freq: rxn6838

0 1
C   1.97875300 -0.20510300  0.77668800
N   0.59964900 -0.27006200  0.33656900
C   0.08314400  0.76311900 -0.23189400
C  -1.23544700  0.72485300 -0.73731600
C  -2.06855400 -0.44070700 -0.51675800
C  -3.56706500 -0.45692600 -0.56620500
N  -1.29419100 -1.42310700 -0.38305000
H   2.55721800  0.56927800  0.25553300
H   2.45428700 -1.17693500  0.59637800
H   2.03071500 -0.00396000  1.85399700
H   0.65285500  1.69373000 -0.37176300
H  -1.57962800  1.48534800 -1.43899400
H  -3.93359900 -0.02778900 -1.50522700
H  -3.96200900  0.14850900  0.25434200
H  -3.93460000 -1.48171900 -0.46352500

