%chk=ts_freq.chk
%nprocshared=4
#P wB97X/6-31G(d) opt(ts,calcall,noeigentest,nomicro,maxcycles=150) freq

ReactOT exact pure Gaussian calcall TS opt+freq: rxn411

0 1
O  -1.60856160  0.12196107  1.23991040
C  -0.85797805  0.30655850  0.31697252
C  -0.37977576  1.36283360 -0.43364835
C   1.03532240 -0.48175055  0.41238144
C   0.01285648 -1.17139080 -0.23919550
H   0.26358545  1.20125910 -1.28786530
H  -0.89429384  2.32662990 -0.35134990
H   1.10038420 -0.48863465  1.49723760
H   1.83941940  0.01808845 -0.12038902
H  -0.55565680 -1.92395290  0.28625000
H   0.04469799 -1.27160180 -1.32030380

