%chk=ts_freq.chk
%nprocshared=4
#P Opt=(TS,CalcAll,NoEigenTest,NoMicro,MaxCycles=150) Freq External='../../../../../production/external/horm.sh'

External--CalcAll initial TS guess: rxn2440

0 1
C   1.28407070  0.29867154 -0.82694200
C   0.72888744  0.50498354  0.69094160
C  -0.70822364  0.89573570  0.76208820
O  -1.36468980  0.61066870 -0.45101938
C  -1.33858370 -0.81338190 -0.27041680
C   0.91392505 -0.77948080  0.04649228
H   0.51189330  0.71915610 -1.47284970
H   2.31730030  0.42329246 -1.15915510
H   1.36263470  0.89022690  1.48450900
H  -0.95134574  1.90468740  1.10416510
H  -1.02895510 -0.60506874  0.94421160
H  -1.00147270 -1.34494390 -1.16924740
H  -2.35122280 -1.15358590 -0.02679332
H   1.62578190 -1.55096090  0.34401613

