%chk=ts_freq.chk
%nprocshared=4
#P wB97X/6-31G(d) opt(ts,calcfc,noeigentest,nomicro,maxcycles=150) freq

ReactOT exact pure Gaussian calcfc TS opt+freq: rxn3277

0 1
O   2.00117520 -1.35748670 -0.00865075
C   1.04300930 -0.50356180  0.01667202
N  -0.09822263 -1.13800450 -0.12534484
C  -1.19075600 -0.17583886 -0.09754593
C  -0.46697474  1.13136910  0.08687335
C   0.86156680  0.93947150  0.15521130
H   0.84059010 -2.07864360 -0.16040945
H  -1.89063240 -0.37601350  0.72316027
H  -1.77466130 -0.19362266 -1.02613200
H  -0.98266240  2.08369370  0.15182693
H   1.65756800  1.66863740  0.28433913

