%chk=ts_freq.chk
%nprocshared=4
#P wB97X/6-31G(d) opt(ts,calcall,noeigentest,nomicro,maxcycles=150) freq

GSM eqV2 pure Gaussian calcall TS opt+freq: rxn5745

0 1
C  -1.40138700 -1.08030500  0.37306100
C  -0.77695800 -0.01853300 -0.50081800
C   0.51828800 -0.36724500 -1.16999600
C   1.92791900  0.30324500  0.32758400
O   2.03296400  1.56621800 -0.10656900
C  -1.62721700  1.02690700 -1.08875700
O  -0.81713500  1.31001800  0.05068100
H  -1.68542500 -1.95044600 -0.22937900
H  -0.69599000 -1.41477300  1.14228700
H  -2.29383700 -0.68894000  0.86951700
H   0.84337600  0.39041400 -1.88430600
H   0.48793900 -1.35680300 -1.63998400
H   1.67970600 -0.59245400 -0.46087600
H   1.17079500  0.19557800  1.12165700
H   1.20495100  2.04356200  0.08533500
H  -2.70061200  1.02538900 -0.89732100
H  -1.31374000  1.51555400 -2.01146600

