%chk=ts_freq.chk
%nprocshared=4
#P wB97X/6-31G(d) opt(ts,calcall,noeigentest,nomicro,maxcycles=150) freq

ReactOT exact pure Gaussian calcall TS opt+freq: rxn8960

0 1
C  -1.65856650  0.87430644 -0.26724260
C  -0.94056493 -0.23934856  0.38479140
O  -0.51978170 -1.24512670 -0.37255160
C   0.75509840 -1.43070070  0.08297385
C   1.68168410 -0.38925573  0.03956132
C   2.54144900  0.47828335 -0.03733670
H  -2.13158440  0.51379496 -1.17395700
H  -0.91252685  1.63335660 -0.55657905
H  -2.37989450  1.34950280  0.38758424
H  -0.74733040 -0.29954612  1.44722440
H   1.02186630 -2.48120210  0.19499362
H   3.29015140  1.23593580 -0.12946190

