%chk=ts_freq.chk
%nprocshared=4
#P wB97X/6-31G(d) opt(ts,calcfc,noeigentest,nomicro,maxcycles=150) freq

ReactOT exact pure Gaussian calcfc TS opt+freq: rxn4771

0 1
C  -1.48165600 -1.07808480 -0.47897005
C  -0.73953176  0.24472381 -0.60205810
C  -0.16132241  0.90850200  0.57319670
C   0.79385114  0.33746693 -0.52795005
C   1.70082930 -0.27483440  0.35320220
O   2.33660400 -1.18063210  0.74440455
H  -1.05666240 -1.68748090  0.32092232
H  -2.53907230 -0.89774380 -0.26068822
H  -1.42040480 -1.65213040 -1.41121000
H  -1.09337370  0.86262417 -1.42528600
H  -0.20901994  0.25417888  1.46581050
H   0.86977210  1.69932780  1.11839770
H   1.19180600  1.17623870 -1.09953950
H   1.80818080  1.28784430  1.22976830

