%chk=ts_freq.chk
%nprocshared=4
#P wB97X/6-31G(d) opt(ts,calcfc,noeigentest,nomicro,maxcycles=150) freq

GSM eqV2 pure Gaussian calcfc TS opt+freq: rxn6357

0 1
O   2.45986900  0.33405800  0.87676400
C   1.23804400 -0.37319700 -0.25186500
C  -0.51448400 -1.11839700 -0.30549500
C  -1.31918400 -0.72766800  0.09345400
C  -1.48316000  0.13449400 -0.81297700
C   0.71211800  0.89515100  0.83297100
C   1.37159900  0.36958500  0.13363900
H   1.97043500  0.54148700  1.72110500
H   1.62937500  0.16052200 -1.37129500
H  -0.21913300 -2.06180800  0.08232400
H  -0.85906900 -1.25419600 -1.36199000
H  -1.22465000 -0.48779700  1.15437900
H  -2.18410900 -1.36657700  0.05265600
H  -1.60882400 -0.34985100 -1.76334700
H  -2.30823900  0.67933400 -0.49431100
H   1.17262400  1.84953400  1.20802900
H   2.27929400  0.60149100 -0.04943900

