%chk=ts_freq.chk
%nprocshared=4
#P Opt=(TS,CalcAll,NoEigenTest,NoMicro,MaxCycles=150) Freq External='../../../../../production/external/horm.sh'

External--CalcAll initial TS guess: rxn10042

0 1
C   1.53924500  0.50479300  0.19659100
C   0.10358600  0.21097700  0.52022900
C  -1.12383600 -0.15567200 -0.55895200
C  -1.99107300  0.38033900  0.65509400
C  -1.91218800 -0.99167900  0.30636400
N  -0.21593400 -0.83554400  1.51094400
C  -0.57188700  0.60470400  1.39067600
H   1.67258200  1.29232100 -0.56192800
H   1.98654000 -0.41790200 -0.17445500
H   2.06023200  0.79601300  1.11248100
H  -1.25005400 -0.07100300 -1.64369900
H  -2.93219100  0.92859300  0.68668600
H  -2.70107800 -1.71702700  0.07336500
H  -0.37966200  1.34241300  2.16357800

