%chk=ts_freq.chk
%nprocshared=4
#P Opt=(TS,CalcAll,NoEigenTest,NoMicro,MaxCycles=150) Freq External='../../../../../production/external/horm.sh'

External--CalcAll initial TS guess: rxn3264

0 1
N   1.18614700 -0.41733400  0.33250000
N   0.49483800  0.69547700  0.42436900
C  -0.76244300  0.30761400  0.53496200
C  -0.88812200 -1.11788200  0.66520600
N   0.44503800 -1.53117500  0.55267800
H   2.19523200 -0.42665700  0.36047900
H  -1.54783100  1.04959000  0.58115200
H  -0.29465900 -1.97042300 -0.22581500

