%chk=ts_freq.chk
%nprocshared=4
#P Opt=(TS,CalcAll,NoEigenTest,NoMicro,MaxCycles=150) Freq External='../../../../../production/external/horm.sh'

External--CalcAll initial TS guess: rxn5121

0 1
O   2.43342040  0.76362944  0.77450234
C   1.66650440  0.17368840 -0.26065640
C   0.48682520 -0.54903380  0.34318775
O  -0.34561420  0.36274200  1.11727210
C  -1.54440570 -0.01532955  0.48902306
C  -1.37259640  0.11133428 -0.99697820
C  -0.55601720 -1.12428990 -0.64700097
H   1.81349020  1.31090840  1.28019080
H   1.33472100  0.93212150 -0.98518777
H   2.32187440 -0.54154980 -0.77495420
H   0.86047320 -1.32164000  1.02459260
H  -2.46831320  0.22360694  0.99643200
H  -0.85799290  1.03088990 -1.27399340
H  -2.24671550 -0.10320686 -1.60910180
H  -1.52565320 -1.25387100  0.52267210

