%chk=ts_freq.chk
%nprocshared=4
#P wB97X/6-31G(d) opt(ts,calcall,noeigentest,nomicro,maxcycles=150) freq

GSM eqV2 pure Gaussian calcall TS opt+freq: rxn1961

0 1
C   1.41177600 -0.00597800 -0.23731100
O   0.15355700  0.52123200 -0.68061900
C  -0.86075400  0.32394800  0.13754100
O  -0.77114600 -0.26748700  1.27587500
N  -2.10707800  0.69037600 -0.04921800
H   1.70823100  0.46628100  0.70187300
H   2.12174600  0.23092400 -1.02923800
H   1.34139300 -1.08696500 -0.09480300
H  -2.42722600  0.90474900 -0.98522100
H  -2.01361000  0.01960300  1.09790800

