%chk=ts_freq.chk
%nprocshared=4
#P wB97X/6-31G(d) opt(ts,calcall,noeigentest,nomicro,maxcycles=150) freq

ReactOT exact pure Gaussian calcall TS opt+freq: rxn2847

0 1
C  -0.68206840 -0.92202914  0.06893122
C  -0.64493936  0.63964680 -0.02334943
O  -0.83102643  1.26360690  1.21409800
C   0.60045546  0.03789691 -0.35609420
C   1.81239840 -0.41077635 -0.63456540
H  -1.34339620 -1.41259260 -0.63239780
H  -0.73717624 -1.25800290  1.10684360
H   0.70072895 -1.29481580 -0.30406982
H  -1.25355050  1.05240140 -0.83548500
H  -0.23080812  2.00464530  1.28415690
H   2.60938240  0.30001938 -0.88806810

