%chk=ts_freq.chk
%nprocshared=4
#P Opt=(TS,CalcAll,NoEigenTest,NoMicro,MaxCycles=150) Freq External='../../../../../production/external/horm.sh'

External--CalcAll initial TS guess: rxn6453

0 1
O   1.17783700  0.45812220 -1.31966800
C   0.32477410  0.15619604 -0.24205394
C  -0.89142140 -0.69596660 -0.57081705
O  -1.88045630  0.06331441  0.18361863
C  -0.54230213  1.32785180  0.24361089
C   1.13927270 -0.45914158  0.88888127
O   2.35404300 -0.44492910  0.86928886
H   2.08022450  0.34593690 -0.97798866
H  -0.89335700 -1.72250700 -0.20348862
H  -1.11643310 -0.70087810 -1.64165140
H  -1.84493590  1.03724010 -0.28037795
H  -0.46120745  1.50954710  1.32218340
H   0.55396223 -0.87478614  1.72846260

