%chk=ts_freq.chk
%nprocshared=4
#P wB97X/6-31G(d) opt(ts,calcfc,noeigentest,nomicro,maxcycles=150) freq

ReactOT exact pure Gaussian calcfc TS opt+freq: rxn2675

0 1
N   1.12615200 -1.03575360 -0.64209540
C   1.51827410  0.06864855 -0.22016630
C   0.21810429  0.87685066  0.04305759
C  -0.79650100 -0.18017353 -0.23302875
N  -0.61908570  0.30411822  1.09480110
H   0.11683300  1.94005420 -0.17723641
H  -1.75354560 -0.05993648 -0.75557560
H   0.30770108 -1.59773530 -0.83108150
H  -0.11793216 -0.31607267  1.72132530

