%chk=ts_freq.chk
%nprocshared=4
#P wB97X/6-31G(d) opt(ts,calcall,noeigentest,nomicro,maxcycles=150) freq

ReactOT exact pure Gaussian calcall TS opt+freq: rxn1234

0 1
N   1.59984530  0.13670605 -0.82460210
C   1.02200520  0.11553445  0.36041725
C   0.07047417 -1.08622110  0.56194580
C  -1.08346060 -0.49251541 -0.28031707
C  -0.61639300  0.93955296 -0.25568047
O   1.04125340  1.02762230  1.25153700
H   2.15258200  0.99573870 -0.86270100
H   0.44906968 -2.02343490  0.15964015
H  -0.19371934 -1.17873430  1.61977160
H  -2.08169150 -0.58138030  0.15863305
H  -1.09029200 -0.87743765 -1.29835720
H  -0.92178357  1.55974360  0.57944965
H  -0.34788954  1.46482560 -1.16973650

