%chk=ts_freq.chk
%nprocshared=4
#P wB97X/6-31G(d) opt(ts,calcall,noeigentest,nomicro,maxcycles=150) freq

ReactOT exact pure Gaussian calcall TS opt+freq: rxn4869

0 1
C  -0.80876780  0.21961963  0.97785020
C  -0.36805823 -1.06264410  0.34111010
O  -1.10044170  0.21965273 -1.27269860
C  -0.46740860  0.98686660 -0.31330907
C   0.95653063  0.68569905 -0.64697737
O   1.76984940  0.03205888  0.27749340
C   0.94144060 -1.04815860 -0.12274340
H  -1.88450610  0.23439914  1.13821790
H  -0.27770780  0.46722293  1.90228640
H  -0.93656904 -1.98865820  0.31601840
H  -0.68714684  2.07292370 -0.32687077
H   1.44638290  1.01147410 -1.55703710
H   1.41640260 -1.83045590 -0.71334000

