%chk=ts_freq.chk
%nprocshared=4
#P wB97X/6-31G(d) opt(ts,calcfc,noeigentest,nomicro,maxcycles=150) freq

ReactOT exact pure Gaussian calcfc TS opt+freq: rxn417

0 1
C  -1.58970650  0.13528074 -0.08818808
N  -0.49123952  0.37077495  0.76646880
C   0.19069465 -0.86520135  1.02096970
C   1.22651110 -0.94161410  0.19473884
C   1.12482940  0.29475483 -0.66474910
C   0.37538480  1.19891190  0.11109389
H  -2.39536100 -0.46387014  0.34991303
H  -0.09111486 -0.12342133 -1.23364580
H  -1.95096490  1.01595900 -0.63068146
H  -0.23783118 -1.58614470  1.70974360
H   1.89806970 -1.77172000  0.03199276
H   1.91519380  0.56794790 -1.34666650
H   0.02553446  2.16834240 -0.22098980

