%chk=ts_freq.chk
%nprocshared=4
#P wB97X/6-31G(d) opt(ts,calcfc,noeigentest,nomicro,maxcycles=150) freq

GSM eqV2 pure Gaussian calcfc TS opt+freq: rxn2034

0 1
O   0.63752800 -0.73600800  1.71392300
C   0.49305800 -0.87196100  0.43020000
C  -0.51487900  0.02520800 -0.13376700
C   0.15792700  1.36408100 -0.03089800
C   1.37576300  0.49953400 -0.27391700
O   2.49443600  0.65501300  0.50619800
H  -0.92917500 -0.46203700  1.83585000
H   0.64090300 -1.86600500 -0.01426500
H  -0.96927200 -0.21488000 -1.10283200
H  -1.44908100 -0.09734200  1.25148200
H  -0.09512800  2.10850500 -0.78771000
H   0.16159400  1.80638400  0.96312800
H   1.64150000  0.33423200 -1.31403500
H   2.22319500  0.39344300  1.40942200

