%chk=ts_freq.chk
%nprocshared=4
#P wB97X/6-31G(d) opt(ts,calcall,noeigentest,nomicro,maxcycles=150) freq

ReactOT exact pure Gaussian calcall TS opt+freq: rxn1286

0 1
N  -1.35571160  0.62531036  0.78598255
C  -0.56673120 -0.22881874  0.14445609
O  -0.93617720 -0.87466770 -0.91130040
C   0.83444726 -0.53580120  0.44459596
C   1.28504460  0.06212470 -0.87315540
O   1.92004140  0.31953105  0.40476274
H  -1.02137970  1.13394390  1.58422280
H  -2.20567000  0.95929590  0.33009806
H   1.05949340 -1.60408460  0.57113594
H   0.23870108 -0.87056320 -1.36639570
H   0.74794200  1.01372960 -1.11440270

