%chk=ts_freq.chk
%nprocshared=4
#P wB97X/6-31G(d) opt(ts,calcfc,noeigentest,nomicro,maxcycles=150) freq

GSM eqV2 pure Gaussian calcfc TS opt+freq: rxn793

0 1
C   2.55871600  0.61664900  0.18069600
O   1.58576100  0.32474700  1.07300500
C   0.56395200  0.44914100  0.12558500
C  -0.78132600  1.03653200  0.51582900
O  -1.44013800 -0.04853300 -0.15479700
C  -0.21306900 -0.74690300 -0.39761000
H   3.37289300 -0.13001900  0.31257300
H   1.64014600  1.11915700 -0.59031000
H  -1.04646300  2.00224700  0.07159200
H  -0.95866500  1.06430400  1.60124200
H  -0.12818200 -1.64876500  0.22797400
H  -0.06886600 -1.01371300 -1.45237600

