%chk=ts_freq.chk
%nprocshared=4
#P wB97X/6-31G(d) opt(ts,calcfc,noeigentest,nomicro,maxcycles=150) freq

ReactOT exact pure Gaussian calcfc TS opt+freq: rxn8329

0 1
C   2.17812200 -0.26156850 -1.61245630
C   1.37059040 -0.64470020 -0.40033030
C   1.21589290  0.09771610  0.85042256
N   0.23455018  0.16590431 -0.04778851
C  -1.05466340 -0.00623275 -0.04357182
C  -1.93620360  0.93487840  0.70307700
O  -3.18539330  0.40249923  0.97638625
H   1.72507570 -0.61838560 -2.54937500
H   3.19082360 -0.65984625 -1.55361960
H   2.22681360  0.85431360 -1.69558640
H   1.18398270 -1.72315060 -0.31373978
H   1.81334150  0.89166296  1.32215390
H   0.17352763 -0.90956694  1.72038080
H  -1.46557580 -0.57524770 -0.87699890
H  -0.64278704 -1.12502560  1.49017670
H  -1.95638230  1.90342930  0.18459925
H  -3.59573440  0.16350146  0.15424210
H  -1.47598040  1.10981880  1.69202830

