%chk=ts_freq.chk
%nprocshared=4
#P wB97X/6-31G(d) opt(ts,calcall,noeigentest,nomicro,maxcycles=150) freq

ReactOT exact pure Gaussian calcall TS opt+freq: rxn2490

0 1
C   1.48919070 -0.14109498 -0.43965793
C   1.26411260 -0.35441047  0.83942556
C  -0.26119143 -0.25756526  0.90696540
C  -0.70768976 -0.84359795 -0.42803755
O   0.09734391  0.15932226 -1.13692380
C  -0.37076560  1.12946190  0.39630990
H   2.30135420 -0.05429725 -1.15861900
H  -0.71521700 -0.54621790  1.84500580
H  -0.40612176 -1.84392770 -0.71760184
H  -1.75435090 -0.66097116 -0.68701935
H  -1.29155420  1.51937100 -0.05555695
H   0.35488940  1.89392760  0.63570990

