%chk=ts_freq.chk
%nprocshared=4
#P wB97X/6-31G(d) opt(ts,calcall,noeigentest,nomicro,maxcycles=150) freq

ReactOT exact pure Gaussian calcall TS opt+freq: rxn7136

0 1
O  -0.68107414  1.22809260  0.71431550
C  -1.10219800  0.02344227  0.57296730
C  -1.37659200 -0.56023556 -0.79517740
C   0.02780955 -0.93860320 -0.46574652
O   0.99973476 -0.23220539 -0.89053565
C   1.77767550  0.95111310  0.34760875
O   2.20275900  0.39563984  1.29511110
H   0.47254375  1.28074350  0.54426680
H  -1.31730320 -0.58696190  1.45401130
H  -2.10126520 -1.36563720 -0.83159924
H  -1.47144190  0.17523625 -1.58712280
H   0.23347613 -1.88188040  0.05488149
H   2.33587550  1.51125620 -0.41298077

