%chk=ts_freq.chk
%nprocshared=4
#P wB97X/6-31G(d) opt(ts,calcfc,noeigentest,nomicro,maxcycles=150) freq

ReactOT exact pure Gaussian calcfc TS opt+freq: rxn6066

0 1
O   2.58119100 -0.31892955  0.77748704
C   1.39612620  0.16682485  0.43047333
C  -0.66225110  0.23805663 -1.06369720
C  -1.37997410 -0.99321073 -0.88417300
C  -1.91645690 -2.05204030 -0.73090160
C  -0.80138767  1.25136650 -0.15452527
C  -0.40789714  1.91331620  0.78666730
H   2.49275800 -1.08586590  1.35732700
H   0.50715023 -0.30051678  0.88768340
H   1.44562570  0.99307650 -0.25390670
H  -0.31600937  0.45490804 -2.07421400
H  -2.42447350 -2.98376370 -0.59525657
H  -0.51440120  2.71677800  1.51703610

