%chk=ts_freq.chk
%nprocshared=4
#P wB97X/6-31G(d) opt(ts,calcall,noeigentest,nomicro,maxcycles=150) freq

ReactOT exact pure Gaussian calcall TS opt+freq: rxn4901

0 1
C   2.37317250 -0.16150007  0.50543580
O   1.12998430  0.28654143 -0.05889457
C   0.10559167 -0.49926594  0.07155926
O   0.19591020 -1.77701280  0.28563803
C  -1.28902400 -0.09634729 -0.19808261
C  -1.62269930  1.26658070 -0.74743134
O  -2.07111430 -1.09894080 -0.26843430
H   2.23886510 -0.40197596  1.56529890
H   3.07706670  0.64892170  0.38828710
H   2.72805980 -1.07363270  0.00978420
H  -0.92390680  0.15807158  1.06237580
H  -0.91744210  2.02490020 -0.39812708
H  -2.64991200  1.53037200 -0.46960577
H  -1.58568220  1.20782420 -1.83387890
H  -0.78886900 -2.01453600  0.08607534

