%chk=ts_freq.chk
%nprocshared=4
#P wB97X/6-31G(d) opt(ts,calcall,noeigentest,nomicro,maxcycles=150) freq

ReactOT exact pure Gaussian calcall TS opt+freq: rxn7303

0 1
O  -1.53464010  1.07271740  0.35502120
C  -1.56449460 -0.18502092 -0.28599355
C  -0.24777090 -0.75470746 -0.69901264
C   0.91391253 -0.50766075  1.14763190
C   1.74436680  0.17666945  0.09324834
O   2.91170530  0.45326596  0.12068655
C   0.78164190  0.31311660 -1.08415780
H  -2.46553560  1.32806040  0.51883850
H  -2.12421150 -0.92241480  0.30990080
H  -2.06925370 -0.11566359 -1.27915320
H   0.31034705 -1.32107900  0.42025578
H   0.24429895  0.18355519  1.64901950
H   1.45694970 -1.17040200  1.82701520
H   0.36097315  1.33455980 -1.05946560
H   1.28171100  0.11500364 -2.03383470

