%chk=ts_freq.chk
%nprocshared=4
#P wB97X/6-31G(d) opt(ts,calcfc,noeigentest,nomicro,maxcycles=150) freq

GSM eqV2 pure Gaussian calcfc TS opt+freq: rxn6195

0 1
O  -1.67644000  0.46855300  0.19870200
C  -0.99580600 -0.36314200  0.11240500
C  -1.57346100 -0.79881100 -0.20851200
C  -0.08503200  0.29560400  0.62681500
C   0.09212100  1.77730100  0.27405200
C   1.07609900 -4.68526000  2.14667900
N  -0.75658100 -0.79929800  0.19043700
H  -2.19647400  0.82372200 -0.45215900
H   0.04523300 -0.42589200 -0.64723700
H  -0.48174800 -1.06397300  1.01152300
H  -2.11243800 -0.34533000  0.78072100
H   0.00425300  2.49966300 -0.16414100

