%chk=ts_freq.chk
%nprocshared=4
#P wB97X/6-31G(d) opt(ts,calcall,noeigentest,nomicro,maxcycles=150) freq

ReactOT exact pure Gaussian calcall TS opt+freq: rxn9683

0 1
N   2.50823280  0.67448616  0.56231220
C   1.42726020  0.42235196 -0.02341542
C   0.82451780 -0.95153060 -0.18502545
C  -0.60498930 -1.06835200  0.33670238
C  -1.60279390 -0.14393628 -0.32590467
C  -0.49589357  1.75662080 -0.11787277
O   0.67838930  1.41391560 -0.66165113
H   2.71303500  1.66859690  0.53670180
H   0.84913880 -1.20203240 -1.25636220
H   1.50198280 -1.64993000  0.31425247
H  -0.60193396 -0.89382577  1.42500560
H  -0.91818150 -2.11001370  0.20636810
H  -1.73497270 -0.40446770 -1.38547130
H  -2.57291300 -0.14398490  0.16812988
H  -0.49850097  1.53684300  0.96741880
H  -1.47237840  1.09525920 -0.56118804

