%chk=ts_freq.chk
%nprocshared=4
#P wB97X/6-31G(d) opt(ts,calcfc,noeigentest,nomicro,maxcycles=150) freq

ReactOT exact pure Gaussian calcfc TS opt+freq: rxn2897

0 1
C  -1.32518860  0.66830206  0.31182066
C  -0.53232270 -0.61436210  0.07244013
N   0.59078570 -0.41917998 -0.83081824
C   1.81145830 -0.07717862 -0.43721970
O   2.00878480  0.07992652  0.86294780
H  -2.15855050  0.49193975  0.99974483
H  -1.73191130  1.07002820 -0.62058973
H  -0.67110890  1.43206720  0.74946237
H  -1.18888930 -1.39387610 -0.35517964
H  -0.12327186 -1.00006220  1.01240310
H   0.42740962 -0.47514660 -1.82192110
H   2.89280460  0.23754202  0.05690942

