%chk=ts_freq.chk
%nprocshared=4
#P wB97X/6-31G(d) opt(ts,calcfc,noeigentest,nomicro,maxcycles=150) freq

ReactOT exact pure Gaussian calcfc TS opt+freq: rxn8802

0 1
C   2.28973300 -0.27733728 -0.42694170
C   1.15867910 -0.38985422  0.04836542
C   0.01297551 -0.06219280  1.18868920
C  -0.41259150 -0.86826660  0.05114406
C  -1.34905970 -0.07539110 -0.70000595
N  -1.46757570  1.09902470 -0.15554135
N  -0.64952826  1.10926560  0.91455280
H   3.26665700 -0.18046798 -0.83041010
H  -0.37800900 -1.96033070  0.03471699
H  -1.91360890 -0.35193473 -1.57374810
H  -0.55767170  1.95748520  1.44917860

