%chk=ts_freq.chk
%nprocshared=4
#P Opt=(TS,CalcAll,NoEigenTest,NoMicro,MaxCycles=150) Freq External='../../../../../production/external/horm.sh'

External--CalcAll initial TS guess: rxn1639

0 1
C   1.85058600  0.58453500  0.54235800
C   0.45651700  0.66717600 -0.06369500
C  -0.21345300 -0.71378200 -0.23014000
C  -1.85624900  0.40384400  0.29985800
O  -0.94859300 -0.34198000  1.35606700
C  -0.66639500  1.02205200  0.88467300
H   1.80934300  0.10662100  1.52762000
H   2.28721300  1.58117100  0.66423300
H   2.52583800 -0.00020500 -0.09241400
H   0.43396900  1.26868200 -0.97849800
H   0.35761500 -1.55038500  0.19382000
H  -0.67550700 -0.99556700 -1.17024400
H  -2.85536000  0.63441400  0.68559100
H  -0.64818700  1.78922500  1.65935800

