%chk=ts_freq.chk
%nprocshared=4
#P wB97X/6-31G(d) opt(ts,calcfc,noeigentest,nomicro,maxcycles=150) freq

ReactOT exact pure Gaussian calcfc TS opt+freq: rxn600

0 1
C  -2.25256160 -0.23365287  0.22409782
C  -0.91093110  0.16778806 -0.43982200
O  -0.82000910  1.47605670 -0.71565470
C   0.18905410 -0.06456714  0.52545834
C   1.39010680 -0.83843080  0.34604636
C   1.79503770  0.55226190 -0.36458543
H  -2.41526530  0.35298017  1.13057600
H  -2.31029490 -1.31033150  0.49292430
H  -3.05634100 -0.00374300 -0.47602966
H  -0.75011000 -0.55254190 -1.28497580
H   0.92621360  1.25121620 -0.57969240
H   0.12591775  0.53922987  1.43523120
H   2.02113720 -1.04906460  1.20812340
H   1.35828570 -1.64484680 -0.38094616
H   2.16688280  0.28746384 -1.35865130
H   2.54287720  1.07018200  0.23789972

