%chk=ts_freq.chk
%nprocshared=4
#P wB97X/6-31G(d) opt(ts,calcfc,noeigentest,nomicro,maxcycles=150) freq

GSM eqV2 pure Gaussian calcfc TS opt+freq: rxn9445

0 1
C  -0.37671100  0.63961700 -1.24374400
C  -1.09587600  0.23340900 -0.06832200
C  -0.84831700 -1.14179900  0.52301600
C  -0.05475400  1.56948900  1.59336800
C   1.06795900  1.41915300  0.81764800
C   1.71185700  1.18116600 -0.22100400
H  -1.57958500  0.01963000 -1.28759000
H   0.26344500 -0.07545000 -1.74573300
H  -0.60591900  1.56200200 -1.76752800
H  -1.88458300  0.85825700  0.33538600
H  -0.56753400 -1.06103800  1.57326200
H  -1.73659200 -1.78015100  0.46282300
H  -0.03272700 -1.63754400 -0.01235200
H  -0.48229100  2.57452400  1.61219300
H  -0.22686100  0.97022600  2.48199600
H   2.57386900  0.93173100 -0.80941000

