%chk=ts_freq.chk
%nprocshared=4
#P wB97X/6-31G(d) opt(ts,calcall,noeigentest,nomicro,maxcycles=150) freq

ReactOT exact pure Gaussian calcall TS opt+freq: rxn2382

0 1
O   1.89694460 -0.18476245  0.14596221
C   0.55582560 -0.03516524  0.02435661
C  -0.00876424  1.28527550 -0.20527482
O  -1.22490450  1.40856100 -0.30428073
C  -1.52376160 -1.17268630 -0.16066086
N  -0.31825578 -0.98224175  0.13384898
H   2.13846230 -1.10482930  0.02768369
H   0.69094986  2.11717400 -0.34421685
H  -2.20649600 -1.33132540  0.68258170

