%chk=ts_freq.chk
%nprocshared=4
#P wB97X/6-31G(d) opt(ts,calcall,noeigentest,nomicro,maxcycles=150) freq

ReactOT exact pure Gaussian calcall TS opt+freq: rxn6444

0 1
O   1.32569540  1.79363990 -0.62873113
C   0.73970450  0.73572220 -0.20229818
C   1.75630900 -0.03536615  0.46962062
O   0.48783794 -0.55245787 -1.16394210
C  -0.90931183 -0.41264614 -0.88489944
C  -1.23116420 -0.66195476  0.55211586
C  -0.74872386  0.69429080  0.11295180
H   1.71238740 -0.39086264  1.49347360
H   2.64646840 -0.24222243 -0.13330606
H  -1.56103440 -0.53095984 -1.74289130
H  -0.60648394 -1.31860530  1.13322090
H  -2.30674580 -0.70280457  0.77526367
H  -1.30493890  1.62422670  0.21942173

