%chk=ts_freq.chk
%nprocshared=4
#P wB97X/6-31G(d) opt(ts,calcall,noeigentest,nomicro,maxcycles=150) freq

GSM eqV2 pure Gaussian calcall TS opt+freq: rxn3908

0 1
C  -1.98764600  0.12367200  0.14280600
C   0.02257800  0.14424800 -0.84172200
C   0.96821100  1.00937000 -0.07495300
C   1.97197300 -0.09196900 -0.55735700
C   3.16627400 -0.39521100  0.33428500
C   0.77477900 -1.10213300 -0.50987300
H  -1.47519700 -0.16859100  1.05880200
H  -2.68769200 -0.65426900 -0.16838900
H  -2.46669200  1.09653700  0.27165800
H  -1.27843000  0.28061000 -0.88464400
H   0.93201200  0.93099300  1.02381100
H   1.08495600  2.05350000 -0.37898000
H   2.29849900  0.09158700 -1.58396100
H   3.67792600 -1.30485500 -0.00146300
H   3.89027600  0.42729300  0.31178400
H   2.85162700 -0.54533400  1.37338300
H   0.72177400 -1.94954500 -1.19873700
H   0.71478600 -1.44991300  0.53607100

