%chk=ts_freq.chk
%nprocshared=4
#P Opt=(TS,CalcAll,NoEigenTest,NoMicro,MaxCycles=150) Freq External='../../../../../production/external/horm.sh'

External--CalcAll initial TS guess: rxn2983

0 1
C  -1.19725000 -0.82013000  0.25619700
C  -0.34009100  0.98142700  0.19530400
C   1.00792300  0.61699500  0.64938200
C   0.54808600 -0.51261200 -0.28220700
C  -0.50454200  1.71354200 -0.98030500
N  -0.75346400  2.39127300 -1.90476200
H  -0.89992500 -1.33498300  1.17055400
H  -2.09077800 -0.24709600  0.48374500
H  -1.44671800 -1.53557200 -0.53387600
H   1.10246800  0.32004600  1.68338100
H   1.86450500  1.17718800  0.28486100
H   0.87917500 -1.49845700  0.04642400
H   0.73991500 -0.29912400 -1.32034900

