%chk=ts_freq.chk
%nprocshared=4
#P wB97X/6-31G(d) opt(ts,calcall,noeigentest,nomicro,maxcycles=150) freq

GSM eqV2 pure Gaussian calcall TS opt+freq: rxn5043

0 1
C  -1.83335400 -0.66271800 -0.15131200
C  -0.31039600 -0.70561800 -0.26741100
O   0.19243500  0.24793900 -1.10315900
C   0.34549100 -0.51947200  1.17150700
N   1.73693300 -0.25159200  0.90658500
C   1.96913200  0.70604600  0.02241500
O   1.36403700  1.86578100  0.08692800
H  -2.22116800 -1.51209800  0.41515300
H  -2.25645600 -0.69255300 -1.16044700
H  -2.17061600  0.26610400  0.31416200
H  -0.01100300 -1.71555700 -0.59659800
H   0.54911600  1.57223300 -0.55680700
H  -0.09705300  0.32484200  1.69999100
H   0.25474900 -1.41593700  1.79897600
H   2.36336400 -1.05104600  0.84413300
H   2.94010700  0.66208700 -0.49628400

