%chk=ts_freq.chk
%nprocshared=4
#P wB97X/6-31G(d) opt(ts,calcall,noeigentest,nomicro,maxcycles=150) freq

GSM eqV2 pure Gaussian calcall TS opt+freq: rxn7674

0 1
C  -1.94097000  0.18654600 -0.43406400
C  -0.78173500 -0.60465800 -0.96576800
O  -0.86720600 -1.52770100 -1.74438500
C   0.57311200 -0.21646700 -0.43053700
O   0.80568800  0.86384900  0.22721600
C   1.73374500 -1.07732400 -0.39958700
O   2.66891000 -0.54674000  0.31026800
H  -1.95959100  0.14338300  0.66071400
H  -1.82493400  1.24090000 -0.70700800
H  -2.86988400 -0.21811500 -0.83813500
H   1.51395500 -0.50843100 -1.53284400
H   1.85692200  0.53037500  0.55967400
H   1.68888900 -2.13619800 -0.65931900

