%chk=ts_freq.chk
%nprocshared=4
#P Opt=(TS,CalcAll,NoEigenTest,NoMicro,MaxCycles=150) Freq External='../../../../../production/external/horm.sh'

External--CalcAll initial TS guess: rxn4901

0 1
C   2.26642500 -0.30594600  0.37182900
O   1.05570800  0.19594200 -0.17605200
C  -0.03484900 -0.58161200  0.10855500
O   0.01446100 -1.86465100  0.20235000
C  -1.33340700 -0.09881500 -0.33940300
C  -1.65584200  1.28078900 -0.78283600
O  -2.15815100 -1.07493400 -0.41750600
H   2.22099800 -0.32647600  1.46863000
H   3.04746300  0.38796000  0.05486400
H   2.46554900 -1.31307900 -0.00186300
H  -0.57403900 -0.03983500  1.10769400
H  -1.18483800  2.01878800 -0.13170300
H  -2.73788300  1.43388600 -0.78826000
H  -1.25855500  1.41357800 -1.79299900
H  -1.39029800 -1.88939900 -0.23726200

