%chk=ts_freq.chk
%nprocshared=4
#P Opt=(TS,CalcAll,NoEigenTest,NoMicro,MaxCycles=150) Freq External='../../../../../production/external/horm.sh'

External--CalcAll initial TS guess: rxn2706

0 1
O   3.09365600  0.56367800  1.77631300
C   1.98375600  0.44202900  1.46624700
C   0.93843900 -0.33476200 -0.18760500
C   0.49960700  0.99205500 -0.11003700
N  -0.69607800  1.21878400  1.55971700
C   0.59283500  1.51401100  1.25245100
H   1.21980500 -0.71913300 -1.16888800
H   0.56459700 -1.09702400  0.48916000
H   0.37795700  1.66550500 -0.95231800
H  -0.87019900  0.22463400  1.41668700
H   0.87444800  2.54366800  1.48442500

