%chk=ts_freq.chk
%nprocshared=4
#P Opt=(TS,CalcAll,NoEigenTest,NoMicro,MaxCycles=150) Freq External='../../../../../production/external/horm.sh'

External--CalcAll initial TS guess: rxn3811

0 1
C  -2.04679680  0.14666466  0.19500020
C  -0.10931559 -1.06087340 -0.32297510
C   0.85228490 -0.14628313  0.33243860
N   2.10757880 -0.82979710 -0.00577449
C   0.87224100  1.27153220 -0.12674733
N   0.84378433  2.36413070 -0.49826887
H  -1.64228390  1.01508120 -0.30322683
H  -2.23297330  0.33934350  1.26025080
H  -2.96984700 -0.18964487 -0.29617090
H  -1.41216730 -0.83564530  0.21377371
H  -0.24236540 -0.73518240 -1.38395580
H   0.75473850 -0.15740943  1.42272410
H   2.32977220 -0.79280233 -0.98002446
H   2.89534970 -0.38911435  0.49295640

