%chk=ts_freq.chk
%nprocshared=4
#P wB97X/6-31G(d) opt(ts,calcfc,noeigentest,nomicro,maxcycles=150) freq

GSM eqV2 pure Gaussian calcfc TS opt+freq: rxn4825

0 1
O   2.13527000 -1.28738800  1.14252200
C   1.22185400 -0.67409800  0.67288800
N   1.13801400  0.63627400  0.24657800
C  -0.12253300  1.02614700 -0.19102500
C  -0.78671600 -0.20176100 -0.10980400
O  -0.03332300 -1.21273700  0.41546700
H   1.94357000  1.24110700  0.27864500
H  -0.43543600  0.35841600 -1.26946600
H  -1.83798100 -0.41726500 -0.25849900

