%chk=ts_freq.chk
%nprocshared=4
#P wB97X/6-31G(d) opt(ts,calcfc,noeigentest,nomicro,maxcycles=150) freq

GSM eqV2 pure Gaussian calcfc TS opt+freq: rxn3811

0 1
C  -2.22019500 -0.23011000  0.29313000
C  -0.04942700 -1.00916400 -0.08295200
C   0.72812700  0.06365700  0.66106900
N   2.07838700 -0.44662000  0.45420600
C   0.56098800  1.46501700  0.20232500
N   0.40643900  2.53658600 -0.20905000
H  -1.92250300  0.73229300 -0.12238700
H  -2.52201400 -0.12076800  1.33694100
H  -3.00958800 -0.67304300 -0.31683500
H  -1.39535100 -1.07351200  0.33537700
H  -0.11110800 -0.72113000 -1.14863000
H   0.49035500  0.03605300  1.72962500
H   2.55587200  0.00535900 -0.31556300
H   2.64838800 -0.39967000  1.28773600

