%chk=ts_freq.chk
%nprocshared=4
#P wB97X/6-31G(d) opt(ts,calcall,noeigentest,nomicro,maxcycles=150) freq

ReactOT exact pure Gaussian calcall TS opt+freq: rxn4528

0 1
N  -1.34707980 -0.32568180  0.71092270
C  -0.58889115 -0.15121920 -0.53875530
C   0.87552065 -0.02806280 -0.20930354
O   1.35829080 -0.84376710  0.76911200
C   1.85668870  0.36659202 -1.25270950
N   1.70237470  1.39095350 -0.51185775
H  -1.51736680  0.58398074  1.14155600
H  -2.22953560 -0.79341330  0.54729530
H  -0.68763470 -1.05775900 -1.14092480
H  -0.90836227  0.68627240 -1.16276430
H   0.90794580  1.25226620  0.33962660
H   0.57804966 -1.08016170  1.30780260

