%chk=ts_freq.chk
%nprocshared=4
#P wB97X/6-31G(d) opt(ts,calcall,noeigentest,nomicro,maxcycles=150) freq

GSM eqV2 pure Gaussian calcall TS opt+freq: rxn1081

0 1
C  -1.58030700  0.41771000  1.33272500
C  -0.45339600 -0.11167100  0.50059900
C  -0.16442100 -1.00380100 -1.97704900
N   0.61166300  0.70015800  0.26488100
C   1.61939100  0.26984100 -0.50830200
O   1.47251100 -0.90411700 -0.97970100
H  -2.47686300 -0.19681500  1.20852800
H  -1.83178900  1.45388500  1.05728100
H  -1.34405500  0.43190200  2.40574400
H  -0.20065000 -1.16106300  0.53916500
H   0.32571400 -1.84623400 -2.45400200
H  -0.05058300 -0.08047400 -2.53754500
H  -1.18963800 -1.18759100 -1.67804600
H   0.55151700  1.68389300  0.49302100
H   2.33008600  1.00922700 -0.88526000

