%chk=ts_freq.chk
%nprocshared=4
#P Opt=(TS,CalcAll,NoEigenTest,NoMicro,MaxCycles=150) Freq External='../../../../../production/external/horm.sh'

External--CalcAll initial TS guess: rxn31

0 1
O  -2.15906670  0.01361827  0.83390390
C  -1.69092440  0.62333685 -0.30675346
C  -0.08703960 -0.77459455 -0.55108905
C   0.96574175 -0.86504040  0.52079950
C   1.47668170  0.55716740  0.27169782
C   0.10573415  1.10777640 -0.21468627
H  -2.33574080 -0.92890984  0.73640440
H  -1.89482820  0.06017556 -1.23714540
H  -0.85741400 -1.55733750 -0.52457760
H   0.33644205 -0.77617650 -1.56924360
H   1.68829180 -1.66874220  0.45965030
H   0.45291430 -0.94060430  1.49763370
H   1.87846060  1.07372460  1.15307510
H   2.21751020  0.57941820 -0.53466123
H  -0.26911014  1.77840700  0.58129220
H   0.17234730  1.71778180 -1.11630030

