%chk=ts_freq.chk
%nprocshared=4
#P wB97X/6-31G(d) opt(ts,calcall,noeigentest,nomicro,maxcycles=150) freq

ReactOT exact pure Gaussian calcall TS opt+freq: rxn4627

0 1
C  -0.86401916 -0.39794070  1.28124060
C  -0.32265773 -0.75061560 -0.09497717
N  -0.40602110  0.31871393 -1.11186240
C   0.90751934 -0.20806544 -0.67062600
C   1.32340870  1.36049030  0.00163016
O   2.45192240  1.61498460  0.27614817
H  -0.61704770  0.62819330  1.55473390
H  -0.42053210 -1.08112840  2.01241900
H  -1.94719250 -0.51238620  1.31504290
H  -0.64749980 -1.72230480 -0.45566264
H  -0.76753150  0.12334245 -2.04023840
H   1.46348490 -0.77001210 -1.41905990
H  -0.15383354  1.39672850 -0.64878830

