%chk=ts_freq.chk
%nprocshared=4
#P wB97X/6-31G(d) opt(ts,calcall,noeigentest,nomicro,maxcycles=150) freq

GSM eqV2 pure Gaussian calcall TS opt+freq: rxn8087

0 1
O  -1.87527200  1.15892600  0.86428900
C  -0.86965000  1.13479100  0.28574300
C   0.21151600 -0.62284300 -0.03715500
C  -0.27957300 -1.34040400  1.12763600
O  -0.24330500 -1.91400800 -0.19551700
C   1.18693000  0.09159100 -0.72718200
O   1.47619300  1.30420100 -0.45128300
H   0.29920000  1.63571000  0.00607300
H   0.42748700 -1.77157400  1.83112000
H  -1.27174600 -1.12518100  1.51151300
H   1.63370700 -0.37758000 -1.61914800

