%chk=ts_freq.chk
%nprocshared=4
#P wB97X/6-31G(d) opt(ts,calcall,noeigentest,nomicro,maxcycles=150) freq

ReactOT exact pure Gaussian calcall TS opt+freq: rxn2608

0 1
C  -0.47631338  1.26052800 -0.12170210
C  -0.91718970 -0.03724279  0.35135034
C  -0.50904010 -1.31465000 -0.34866503
C   0.74348650 -1.25262340  0.49563470
C   1.61887350 -0.26270974  0.16764975
C   1.79803840  0.91086090 -0.19494116
H  -0.37190530  1.44071910 -1.17961740
H  -0.51607590  2.11303850  0.54383355
H  -1.75827280  0.83122370 -0.17116438
H  -1.27858460 -0.11319066  1.37889870
H  -0.35507100 -1.18293680 -1.41823940
H  -1.15323210 -2.17188380 -0.14353067
H   0.76319474 -1.79117180  1.44016700
H   2.41209170  1.57003880 -0.79967386

