%chk=ts_freq.chk
%mem=6GB
%nprocshared=4
#P opt(ts,calcall,noeigentest,nomicro,maxcycles=150) freq External='../../../../../production/external/horm.sh'

GSM eqV2 C eqV2-EFH calcall TS opt+freq: rxn8721

0 1
O   2.55021300  1.42476500  1.87292300
C   1.67859200  0.46036200  1.36080300
C   0.32542900  0.93282300  1.13623600
C  -0.46458300  0.89540400 -0.12444000
C  -1.46189500 -0.28711700 -0.26253500
O  -0.87836700 -1.50574900  0.14168700
C   0.47477400 -1.51961800  0.11222700
H   3.25466800  0.96620800  2.34648600
H   1.81290300 -0.26109600  0.20068900
H   1.82557800 -0.49641000  1.87684600
H   0.23213600  1.81322100  1.79308700
H  -1.08587000  1.79865100 -0.24046400
H   0.23973600  0.88253000 -0.97021000
H  -1.84366200 -0.32797900 -1.29302600
H  -2.31206200 -0.15228700  0.41279600
H   0.90058500 -1.58562400 -0.90634900
H   0.85512900 -2.25575900  0.81620200

