%chk=ts_freq.chk
%nprocshared=4
#P wB97X/6-31G(d) opt(ts,calcfc,noeigentest,nomicro,maxcycles=150) freq

ReactOT exact pure Gaussian calcfc TS opt+freq: rxn3144

0 1
C  -0.71703010 -1.04970650 -0.19873454
C   0.08420316  0.07238656 -0.88220394
C  -0.47259566  1.24947520 -0.09139645
C  -0.76293147 -0.38308734  1.15706920
O   0.58141580  0.49583715  1.15060900
C   1.33587780  0.06240233 -0.00005322
H  -1.73811570 -1.07312990 -0.63153833
H  -0.26493114 -2.04559830 -0.32150885
H   0.14259414  0.13873811 -1.97334830
H  -1.54183320  1.43058530 -0.04322441
H   0.10728946  2.17893650 -0.11559506
H  -0.66462720 -1.02698990  2.03001640
H   1.83662100 -0.88874185  0.16985540
H   2.07406280  0.83889264 -0.24994679

