%chk=ts_freq.chk
%nprocshared=4
#P Opt=(TS,CalcAll,NoEigenTest,NoMicro,MaxCycles=150) Freq External='../../../../../production/external/horm.sh'

External--CalcAll initial TS guess: rxn5096

0 1
C  -1.89244400  0.19113400 -0.76349900
C  -0.52296000  0.78610500 -0.69140300
O  -0.78129700  2.55035100 -0.75713000
C   0.47074100  0.83065800  0.34792100
C   1.59637700  0.26955600 -0.53816300
C   0.61453200  0.51653200 -1.68589500
O   0.70262900  0.64270400 -2.87753600
H  -2.46075100  0.42497800  0.14148700
H  -2.44779400  0.55026800 -1.63325600
H  -1.78848600 -0.89701900 -0.83154800
H  -0.43011400  2.92539500 -1.58630800
H   0.08092400  2.27387700 -0.01639300
H   0.29912900  0.58227400  1.39247300
H   2.54598300  0.81406800 -0.61993200
H   1.82531400 -0.79608200 -0.40014400

