%chk=ts_freq.chk
%nprocshared=4
#P wB97X/6-31G(d) opt(ts,calcall,noeigentest,nomicro,maxcycles=150) freq

ReactOT exact pure Gaussian calcall TS opt+freq: rxn8345

0 1
C   1.18579950 -0.40992610 -0.56321937
C  -0.03931653 -1.15374170 -0.44412145
C  -1.19079000 -0.23902123 -0.17733790
C  -0.83004360 -0.48586980  1.20974770
N  -0.29353055  0.72594220  1.52800860
C   0.93571347  0.95503140 -0.16957043
C  -0.51584595  1.14662530  0.13949475
H   1.13596630  0.44584712 -1.47758470
H   2.17578150 -0.85601974 -0.52575550
H  -0.13428213 -2.19579220 -0.72528510
H  -2.15644150 -0.36216596 -0.66852520
H  -0.97138480 -1.33302490  1.88014410
H   1.71155770  1.67044090  0.06251465
H  -1.01318320  2.09167460 -0.06851006

