%chk=ts_freq.chk
%nprocshared=4
#P Opt=(TS,CalcAll,NoEigenTest,NoMicro,MaxCycles=150) Freq External='../../../../../production/external/horm.sh'

External--CalcAll initial TS guess: rxn4654

0 1
C  -0.50822973 -0.81592447  0.09547608
C  -0.81328460  0.59814817  0.16173398
N   1.16153590  1.21365510  0.33010830
C   1.74550810  0.32222180 -0.18309619
O   0.41610580 -1.20063600 -0.69485280
H  -0.71880907 -1.37098300  1.02225530
H  -1.61882710 -0.63269950 -0.38482875
H  -0.81416830  1.14469240 -0.77077650
H  -1.41685940  0.97821873  0.98486745
H   2.56702850 -0.23669322 -0.56088690

