%chk=ts_freq.chk
%nprocshared=4
#P wB97X/6-31G(d) opt(ts,calcfc,noeigentest,nomicro,maxcycles=150) freq

ReactOT exact pure Gaussian calcfc TS opt+freq: rxn3645

0 1
C   1.65175910 -0.32315750  0.83201516
N  -0.19180734  0.07439304 -0.14376733
C  -1.44249020 -0.36857340 -0.52375185
N  -1.83198430 -1.55339560 -0.25338396
C   0.23396663  1.29288260 -0.37952850
O   1.38571800  1.56514560  0.02780516
H   2.66299840 -0.02440909  0.57911724
H   1.39694380 -1.33486270  0.55318320
H   1.33580610 -0.03128929  1.82317110
H  -2.07721110  0.37033552 -1.04280660
H  -2.75782750 -1.72485000 -0.59292570
H  -0.36587158  2.05778070 -0.87912786

