%chk=ts_freq.chk
%nprocshared=4
#P wB97X/6-31G(d) opt(ts,calcall,noeigentest,nomicro,maxcycles=150) freq

GSM eqV2 pure Gaussian calcall TS opt+freq: rxn1366

0 1
N   3.21809400 -0.53786500 -0.73047900
C   2.15355800 -0.47322000 -0.59637300
C   0.74709000 -0.28390900 -0.45943200
C  -0.35836500 -1.12247600  0.21639800
C  -1.21754700  0.16583300  0.27228900
C  -0.05698600  0.99977100 -0.33529700
H   1.89538000 -0.76890600 -1.99141700
H  -0.78609800 -1.93271000 -0.35939100
H  -0.08199300 -1.53252000  1.18747000
H  -2.13492000  0.14517100 -0.35337100
H  -1.48761100  0.48345400  1.29054800
H   0.40346500  1.70100800  0.37111700
H  -0.28461500  1.53584300 -1.23888300

