%chk=ts_freq.chk
%nprocshared=4
#P wB97X/6-31G(d) opt(ts,calcall,noeigentest,nomicro,maxcycles=150) freq

ReactOT exact pure Gaussian calcall TS opt+freq: rxn8603

0 1
C   1.66301190 -0.85713106  0.03702655
C   0.87172600  0.42505926  0.11683291
N   0.20384346  0.89819830 -1.09263090
C  -0.60378724  0.46401140  0.00536968
C  -1.50170160 -0.72783280 -0.13229288
C  -1.59261720  1.82790050  0.47300193
N  -1.03994890  1.52110390  1.47114470
H   1.66652390 -1.36237430  1.01509310
H   1.25308970 -1.54821650 -0.70102316
H   2.69579220 -0.65288710 -0.24477752
H   1.31742000  1.20256190  0.73018090
H   0.24699956  1.90433920 -1.18931260
H  -0.99381137 -1.49958070 -0.71629477
H  -1.74731600 -1.13438900  0.85594815
H  -2.43922450 -0.46076298 -0.62826610

