%chk=ts_freq.chk
%nprocshared=4
#P wB97X/6-31G(d) opt(ts,calcall,noeigentest,nomicro,maxcycles=150) freq

GSM eqV2 pure Gaussian calcall TS opt+freq: rxn6170

0 1
O   2.08192900  1.17969400 -0.77330600
C   1.10210300  0.22216800 -0.97979000
C   1.03971400 -1.14328800 -0.32588700
C  -0.38639500 -1.34141700 -0.86915900
C  -1.20208800 -0.22984300 -0.17664600
C  -0.35099200  0.68752300 -1.04568300
C  -0.30336600 -0.39664400 -2.12563000
H   1.77446900  1.75781700 -0.06361300
H   1.15219900 -1.16358900  0.76616600
H   1.74976600 -1.84165700 -0.77829400
H  -0.74796400 -2.36674600 -0.96189900
H  -2.24194900 -0.18979300 -0.50944600
H  -1.16686800 -0.20242600  0.91957100
H  -0.53856500  1.73830100 -1.27044100
H   1.20471700 -0.08736500 -2.13961700

