%chk=ts_freq.chk
%nprocshared=4
#P wB97X/6-31G(d) opt(ts,calcfc,noeigentest,nomicro,maxcycles=150) freq

ReactOT exact pure Gaussian calcfc TS opt+freq: rxn2931

0 1
C  -2.12955740  0.53164490  0.63605410
C  -1.20790430 -0.24724677 -0.28889507
C   0.03413241  0.50182120 -0.73491883
C   0.79388696  1.27174200  0.68264437
C   1.47710080  0.29455864  0.33332396
C   2.40760020 -0.83652145  0.12308297
H  -1.62080730  0.83520440  1.55241160
H  -3.00971320 -0.06275758  0.91950070
H  -2.48217460  1.45462430  0.16295077
H  -1.75014090 -0.56174433 -1.18123390
H  -0.89680090 -1.17997120  0.20991868
H   0.57932556 -0.09505735 -1.46557130
H  -0.17684743  1.44438250 -1.22760930
H   2.88847880 -0.79943440 -0.85539645
H   3.18483140 -0.75562525  0.89354527
H   1.90859020 -1.79561970  0.24019244

