%chk=ts_freq.chk
%mem=6GB
%nprocshared=4
#P opt(ts,calcall,noeigentest,nomicro,maxcycles=150) freq External='../../../../../production/external/horm.sh'

ReactOT exact C eqV2-EFH calcall TS opt+freq: rxn6344

0 1
C   2.37709880 -0.48400763 -0.43026876
O   0.97075534 -0.64193720 -0.46436355
C   0.34031478 -0.01864057  0.63283620
C   0.09303387  1.46792510  0.37484244
C  -1.24552140  1.34157160 -0.33563400
C  -1.12672800 -0.45214155  0.80804460
C  -1.55977900 -1.58902370 -0.05387082
H   2.81420500 -0.85286370  0.50122170
H   2.68029210  0.57603127 -0.54824644
H   2.78026680 -1.06190160 -1.26459980
H   0.89318824 -0.26187962  1.55859120
H  -0.02221312  2.01361200  1.31207050
H   0.88042770  1.93143340 -0.22470024
H  -1.17068800  0.93076660 -1.33388280
H  -1.90550330  2.21625100 -0.31242362
H  -1.82020600  0.61102980  0.48806563
H  -2.65576580 -1.68840680 -0.07373530
H  -1.17180730 -1.57437630 -1.08757070
H  -1.15136990 -2.46344180  0.45362356

