%chk=ts_freq.chk
%nprocshared=4
#P Opt=(TS,CalcAll,NoEigenTest,NoMicro,MaxCycles=150) Freq External='../../../../../production/external/horm.sh'

External--CalcAll initial TS guess: rxn1593

0 1
C  -0.78624000 -1.06876400 -0.40842400
C   0.23494500  0.02675500 -0.10959500
C  -0.48059700  1.28261800  0.41765800
C   1.30461000 -0.43026800  0.87112800
C   2.42410500 -1.72041900 -0.26092900
O   2.58493000 -1.28979700 -1.34718300
H  -1.52429800 -0.72079900 -1.14107200
H  -1.33037200 -1.35848900  0.50093400
H  -0.30954100 -1.96408000 -0.81806900
H   0.74228500  0.28816600 -1.05030700
H   0.22213400  2.10127400  0.60932800
H  -1.22386300  1.64348200 -0.30594000
H  -1.01167100  1.06106900  1.35373400
H   1.96162200  0.40425400  1.14758200
H   0.86517400 -0.88653300  1.76764300
H   2.51001800 -1.51298800  0.84025100

