%chk=ts_freq.chk
%nprocshared=4
#P wB97X/6-31G(d) opt(ts,calcall,noeigentest,nomicro,maxcycles=150) freq

ReactOT exact pure Gaussian calcall TS opt+freq: rxn873

0 1
N   1.88829790 -0.02164507 -0.01726609
C   0.62614864 -0.09929216  0.25180274
O   0.50613520 -0.51995754  1.47210110
N  -0.46575135  0.18404606 -0.54825910
C  -1.77545570  0.07525867 -0.11368498
O  -2.71136900  0.32548547 -0.83331656
H   2.33288260  0.25921610 -0.88347020
H   1.76788250 -0.43488318  1.24563290
H  -0.32014950  0.48687327 -1.50943400
H  -1.84862110 -0.25510165  0.93589420

