%chk=ts_freq.chk
%nprocshared=4
#P wB97X/6-31G(d) opt(ts,calcfc,noeigentest,nomicro,maxcycles=150) freq

ReactOT exact pure Gaussian calcfc TS opt+freq: rxn2902

0 1
C  -1.29833840  0.55564060  0.46897620
C  -0.98350030 -0.69843290 -0.05067164
N   0.95926880 -0.80025170 -0.44009840
C   1.62638140  0.27084428 -0.21508206
O   1.25375770  1.15399990  0.64599574
H  -1.57070500  0.59724770  1.52787040
H  -1.77857760  1.27803840 -0.17239265
H   0.11912733  0.99905240  0.68835970
H  -1.23958620 -0.95310070 -1.07248680
H  -0.91772310 -1.56113080  0.62086815
H   1.26629960 -1.34777680 -1.24071350
H   2.56359550  0.50586960 -0.76062524

