%chk=ts_freq.chk
%nprocshared=4
#P wB97X/6-31G(d) opt(ts,calcfc,noeigentest,nomicro,maxcycles=150) freq

ReactOT exact pure Gaussian calcfc TS opt+freq: rxn1593

0 1
C  -1.07512660 -0.92017600 -0.45289326
C  -0.17950767  0.29298097 -0.23606408
C  -0.98998433  1.46052360  0.34522340
C   1.00048640 -0.02937316  0.65436120
C   2.20532600 -1.18324530 -0.46534082
O   1.96570770 -0.97557840 -1.63303970
H  -1.92090950 -0.68110270 -1.10375180
H  -1.48236160 -1.28607630  0.49862412
H  -0.50932360 -1.71939660 -0.94790840
H   0.20236947  0.59310970 -1.22279440
H  -0.36980736  2.35867480  0.45432043
H  -1.82264970  1.72541240 -0.31632167
H  -1.40388620  1.21182450  1.32326850
H   1.63510450  0.83677620  0.85926855
H   0.68278340 -0.48489200  1.60140600
H   2.06177880 -1.19946160  0.64164186

