%chk=ts_freq.chk
%nprocshared=4
#P wB97X/6-31G(d) opt(ts,calcall,noeigentest,nomicro,maxcycles=150) freq

ReactOT exact pure Gaussian calcall TS opt+freq: rxn4776

0 1
C  -1.45953610 -0.89619460 -0.40807417
C  -0.52052920  0.15310898 -0.92829674
C   0.35044450  0.85038483  0.86691410
C   0.82512350  0.27801245 -0.65161330
C   1.51650380 -0.15340683  0.75057805
O   2.74265220  0.17611629  0.89188840
H  -0.96322817 -1.59813010  0.25670585
H  -2.33425760 -0.46729103  0.07175939
H  -1.81030990 -1.45993320 -1.27629890
H  -0.92835560  0.75954870 -1.74166850
H  -0.53040296  0.52030927  1.38027190
H   0.55546695  1.93134310  0.92385160
H   1.39666530  1.06904510 -1.14432000
H   1.15976330 -1.16291280  1.00830220

