%chk=ts_freq.chk
%nprocshared=4
#P Opt=(TS,CalcAll,NoEigenTest,NoMicro,MaxCycles=150) Freq External='../../../../../production/external/horm.sh'

External--CalcAll initial TS guess: rxn1466

0 1
C  -0.96656900  0.72945900 -0.45968100
C  -0.25511100 -0.38297600  0.34947600
C   0.83565300  0.46500200 -0.15427100
O   1.13642500  1.61887000  0.44304800
N   1.65991600  0.00738200 -1.13395500
H  -1.72561900  1.23770400  0.13483900
H   0.03735400  1.76471300 -0.06006500
H  -1.30384500  0.47524000 -1.46354700
H  -0.31722300 -1.39888500 -0.04084300
H  -0.43375400 -0.30495800  1.42087600
H   1.69602800 -0.98527900 -1.30837600
H   1.87650000  0.61438900 -1.90849900

