%chk=ts_freq.chk
%nprocshared=4
#P wB97X/6-31G(d) opt(ts,calcall,noeigentest,nomicro,maxcycles=150) freq

ReactOT exact pure Gaussian calcall TS opt+freq: rxn6115

0 1
C   2.37971430  0.15401836  1.32199780
C   0.99526316  0.69116950  0.98431900
C   0.42657930 -0.04785796 -0.24035867
O   0.07999507 -1.34984770 -0.03554142
C  -0.91907907  0.39613664 -0.63208175
C  -1.44872030 -0.01694864 -1.96194570
O  -2.08922820 -0.69530910  0.83404730
H   2.31287570 -0.93438760  1.43486030
H   3.08863330  0.34803090  0.52006000
H   2.76314200  0.59575640  2.24430420
H   0.31910750  0.55590020  1.81648790
H   1.05801460  1.77031910  0.76770880
H   1.12865070  0.04353442 -1.09364300
H  -1.22735930 -1.20344910  0.77318870
H  -1.44181260  1.19073410 -0.09465241
H  -1.04007430 -0.97515980 -2.24974500
H  -2.54751060 -0.03881552 -1.99233520
H  -1.14329020  0.74818100 -2.68869690
H  -2.69490120 -1.23200520  0.29202590

