%chk=ts_freq.chk
%nprocshared=4
#P wB97X/6-31G(d) opt(ts,calcall,noeigentest,nomicro,maxcycles=150) freq

ReactOT exact pure Gaussian calcall TS opt+freq: rxn1498

0 1
C  -1.62117370 -0.29317504 -0.20626990
N  -0.21972796 -0.10096008  0.13696903
C   0.84529155 -1.09949180 -0.30252922
C   1.93063260 -0.23919089 -0.21297520
N   1.65067290  1.07609320  0.07378525
C   0.38690034  1.15004230  0.28153008
H  -1.80581690  0.00574360 -1.23231980
H  -1.83521400 -1.35684380 -0.09630592
H  -2.26145500  0.27309442  0.47931280
H   0.14511864 -0.91468346  0.88256030
H   2.96176430 -0.53549680 -0.35939685
H  -0.17699270  2.03486850  0.55563945

