%chk=ts_freq.chk
%nprocshared=4
#P wB97X/6-31G(d) opt(ts,calcall,noeigentest,nomicro,maxcycles=150) freq

ReactOT exact pure Gaussian calcall TS opt+freq: rxn1922

0 1
C  -1.66650620  0.34369606  0.90109370
C  -1.06547320 -0.58294520 -1.27258120
N   0.26884446 -0.26693535 -1.09429480
C   0.74822307 -0.28224748  0.16882105
O  -0.09238821 -0.64211524  1.04428360
C   2.12020040  0.27327590  0.45006704
H  -2.59242730 -0.16500773  0.64002144
H  -1.56746340  1.31477070  0.42393294
H  -1.53613730  0.42363435  1.98150860
H  -1.35763820 -1.51790460 -0.81777570
H  -1.43791320 -0.36147872 -2.26909040
H   0.79428580  0.22316635 -1.79984560
H   2.65920380  0.51716137 -0.47375947
H   2.68349890 -0.45179194  1.04375300
H   2.04169100  1.17472160  1.07386570

