%chk=ts_freq.chk
%nprocshared=4
#P Opt=(TS,CalcAll,NoEigenTest,NoMicro,MaxCycles=150) Freq External='../../../../../production/external/horm.sh'

External--CalcAll initial TS guess: rxn74

0 1
C  -0.19022700  1.22969600  0.56472000
C   0.63158000  0.25763300 -0.31689100
C  -0.04041300 -1.07977100 -0.26722800
C  -1.39546300 -0.84668500  0.30877300
C  -1.52623800  0.54884000  0.41869400
N  -0.06411800 -0.21717100 -1.44916000
H  -0.23117300  2.24597200  0.13624000
H   0.09182400  1.30476100  1.61513500
H   1.71795000  0.39910000 -0.33238600
H   0.40566600 -2.06680300 -0.27684400
H  -1.53537500 -0.40132700  1.49887400
H  -2.27505200 -1.46589700  0.13052500
H  -2.49487200  1.05452100  0.39050500

