%chk=ts_freq.chk
%nprocshared=4
#P wB97X/6-31G(d) opt(ts,calcfc,noeigentest,nomicro,maxcycles=150) freq

GSM eqV2 pure Gaussian calcfc TS opt+freq: rxn3075

0 1
N  -0.14795400  1.18859700 -0.28769400
C   1.22148500  1.09699200 -0.37162000
C   1.58876200 -0.03260000  0.29267100
N   0.45724800 -0.49458700  0.93204900
C  -0.64146500  0.20989600  0.54486000
H  -0.67710300  2.01366000 -0.53837200
H   1.81104300  1.80554700 -0.93725500
H   2.54926600 -0.51694500  0.38110300
H  -0.62192100 -1.07595100  0.66094400

