%chk=ts_freq.chk
%nprocshared=4
#P wB97X/6-31G(d) opt(ts,calcall,noeigentest,nomicro,maxcycles=150) freq

ReactOT exact pure Gaussian calcall TS opt+freq: rxn7493

0 1
C   2.81488850  0.25530884  0.17704493
C   1.48063390 -0.46727943  0.20690470
C   0.29442194  0.47966830  0.29962350
C  -1.04967740 -0.25267770  0.29203734
C  -1.30136920 -0.99561393 -1.02146230
O  -2.95198580 -0.12501639 -0.95060277
C  -2.29473900  0.60866900  0.11128296
H   2.89034700  0.92397946 -0.68039954
H   2.97203250  0.83605440  1.09290580
H   3.65045830 -0.45745090  0.10319627
H   1.45838090 -1.15914860  1.08061530
H   1.36721750 -1.06027020 -0.71000450
H   0.32686680  1.16588680 -0.55577433
H   0.36524260  1.08985270  1.21613860
H  -1.13382640 -0.91647910  1.16491700
H  -1.62746740 -2.03863700 -0.89306074
H  -2.19737170 -0.17375225 -1.69453480
H  -2.09460800  1.64007170 -0.21158490
H  -2.96944550  0.64683425  0.97275740

