%chk=ts_freq.chk
%nprocshared=4
#P wB97X/6-31G(d) opt(ts,calcall,noeigentest,nomicro,maxcycles=150) freq

GSM eqV2 pure Gaussian calcall TS opt+freq: rxn6057

0 1
C   2.98613600  0.52109500  1.99057200
C   1.90987200 -0.10827500  1.22116700
C   1.01876500 -0.61663400  0.58750200
C  -0.07728400 -1.21127800 -0.19443900
C  -1.45557400 -0.90810800  0.34188700
C  -1.77677300  0.98137700 -0.37870600
N  -2.38917000 -0.25135400 -0.37409000
H   2.84895600  1.60658700  2.03861800
H   3.96285200  0.32484600  1.53598700
H   3.00966700  0.14184300  3.01765000
H   0.07331200 -2.30340700 -0.22888600
H  -0.03092400 -0.83191800 -1.22238400
H  -1.78183900 -1.48150000  1.21573600
H  -1.75633500  1.53996000 -1.31384700
H  -1.56380800  1.48226700  0.55602700
H  -3.38601200 -0.45323900 -0.35906100

