%chk=ts_freq.chk
%nprocshared=4
#P wB97X/6-31G(d) opt(ts,calcfc,noeigentest,nomicro,maxcycles=150) freq

GSM eqV2 pure Gaussian calcfc TS opt+freq: rxn7578

0 1
C  -2.25707600 -0.20466400  0.47485200
C  -0.99756800  0.55642000  0.03172100
C  -0.33346400 -0.02236000 -1.21088900
C   1.10168100  0.29643100 -1.28632800
C   1.08098600 -1.11616000 -0.75503800
C   1.69722900 -1.34675200  0.60644300
O   3.07915700 -1.08002400  0.63194300
H  -2.93173900 -0.32291300 -0.38276700
H  -2.78780700  0.33461600  1.26409200
H  -2.00895400 -1.19940800  0.84681900
H  -0.34402300  0.74204400  0.89881800
H  -1.32160900  1.55259900 -0.31068300
H  -0.16869800 -1.35185500 -0.84786600
H   1.56344600  0.45652700 -2.25859300
H   1.45741700  1.03274400 -0.54880900
H   1.40689200 -1.81756000 -1.52519800
H   1.15705700 -0.75728400  1.36438000
H   1.59400600 -2.40374500  0.87985100
H   3.20148400 -0.13702200  0.46962300

