%chk=ts_freq.chk
%nprocshared=4
#P Opt=(TS,CalcAll,NoEigenTest,NoMicro,MaxCycles=150) Freq External='../../../../../production/external/horm.sh'

External--CalcAll initial TS guess: rxn9828

0 1
C  -2.16445800  0.14427200 -1.01176100
C  -1.45547200 -0.82535900 -0.23790600
O  -0.65134200 -1.51219000 -1.71857800
C  -0.31994600 -0.55129600  0.72341800
O   0.13089800 -1.71547900  1.32884600
C   0.83002300  0.11782500 -0.01179700
O   1.94293400 -0.35550700  0.03665400
H  -1.52899000 -0.83480100 -2.00465900
H  -3.25146400  0.08032800 -0.99592600
H  -1.75864300  1.15095900 -1.07130600
H  -2.05241800 -1.68234700  0.07707200
H  -0.46107600 -2.45538300 -1.87484700
H  -0.70539500  0.17802900  1.46092100
H   1.08860900 -1.75033400  1.14722500
H   0.62247200  1.04984200 -0.55689700

