%chk=ts_freq.chk
%nprocshared=4
#P wB97X/6-31G(d) opt(ts,calcall,noeigentest,nomicro,maxcycles=150) freq

ReactOT exact pure Gaussian calcall TS opt+freq: rxn956

0 1
C   1.90489270 -0.09174499 -0.29588130
C   0.62034120  0.45448620  0.20979637
O   0.39996210  1.54656850  0.86229765
N  -0.57843520 -0.11065192  0.09774777
C  -1.34105070 -1.07129000 -0.58462640
C  -1.33025800  0.87557995  0.73634166
H   2.28416370  0.51992214 -1.11648760
H   2.66633960 -0.11359512  0.49301884
H   1.71405480 -1.14342050 -0.66595640
H  -1.63280700 -1.91805980  0.02629552
H  -1.15832350 -1.20878950 -1.63104130
H  -1.65790580  0.69550997  1.76126800
H  -1.89097420  1.56548510  0.10722718

