%chk=ts_freq.chk
%nprocshared=4
#P wB97X/6-31G(d) opt(ts,calcfc,noeigentest,nomicro,maxcycles=150) freq

GSM eqV2 pure Gaussian calcfc TS opt+freq: rxn5367

0 1
C  -2.62106700 -0.87359500 -0.58297500
C  -1.26511800  0.06016300 -0.86981200
O   0.15343000  0.38742700  1.00861800
C  -0.68651500 -0.39641300 -0.21632600
C   1.70719400 -0.43629100 -0.48354100
C   1.84851300 -0.26924300  0.78606800
O   0.77164000 -0.26602500  0.37692700
H  -3.28065100 -0.36060700  0.13957100
H  -3.12882000 -1.01705800 -1.51963000
H  -2.29334100 -1.87424400 -0.18186600
H  -1.54639900  1.17388900 -0.95651200
H   0.67368800  0.45010000  0.27540700
H  -1.63443500 -0.79241700 -0.03143800
H   2.09587300 -1.41989300 -0.75744600
H   2.07977300  0.35979700 -1.13352100
H   2.36136600  0.63982200  0.95626500
H   2.18719700 -0.94545800  1.54219700

