%chk=ts_freq.chk
%nprocshared=4
#P Opt=(TS,CalcAll,NoEigenTest,NoMicro,MaxCycles=150) Freq External='../../../../../production/external/horm.sh'

External--CalcAll initial TS guess: rxn5097

0 1
C  -1.65746020 -0.38309170 -0.23507874
C  -0.39595030  0.24888750 -0.31256264
O  -0.32066193  1.60423020 -0.60350280
C   0.51713480 -0.13540702  0.82547400
C   1.90362310  0.02741042  0.18250792
C   1.05870760 -0.40109622 -0.94448704
O   1.15569510 -0.91248950 -2.03458360
H  -1.52527670  0.07087916  1.48856100
H  -2.52038030  0.06209532 -0.73409367
H  -1.72104480 -1.44327680 -0.04321279
H  -1.02838720  1.82459220 -1.22836280
H  -0.74570954  0.19915754  1.87180890
H   0.36529810 -1.17403190  1.10620740
H   2.24006500  1.06854640  0.12339865
H   2.67434700 -0.65640575  0.53792590

