%chk=ts_freq.chk
%nprocshared=4
#P Opt=(TS,CalcAll,NoEigenTest,NoMicro,MaxCycles=150) Freq External='../../../../../production/external/horm.sh'

External--CalcAll initial TS guess: rxn4599

0 1
O   2.11478260  0.20319487  0.56987860
C   1.18828830 -0.16646658 -0.01235750
O   0.41683180  0.97145265 -1.02682650
C  -0.54988190  1.09611450 -0.20054384
C  -0.36005574 -0.93385553  0.20679238
O   0.79450720 -1.35872330 -0.54685265
H  -0.37338770  1.48857620  0.81115770
H  -1.57041550  1.17321310 -0.56653300
H  -0.41771495 -1.37474780  1.19781610
H  -1.24295430 -1.09875810 -0.43253130

