%chk=ts_freq.chk
%nprocshared=4
#P wB97X/6-31G(d) opt(ts,calcall,noeigentest,nomicro,maxcycles=150) freq

GSM eqV2 pure Gaussian calcall TS opt+freq: rxn8083

0 1
O   0.79236200 -1.44366100  1.08284000
C   1.96712000 -1.53172000  0.57010200
C   2.39812500 -1.07888700 -0.65057300
C   0.70043000  1.13487100  0.00465300
C  -0.57559200  1.54764000 -0.41410100
C  -0.63984200  0.03935300 -0.87516900
C  -1.69168500  0.65011800 -0.01406900
H   2.74973200 -1.98334300  1.21296100
H   3.44106700 -1.18887200 -0.93819400
H   1.70789900 -0.84199700 -1.45366200
H   1.53634100  1.64637400 -0.45532700
H   0.86785800  0.60347900  0.93446900
H  -0.71274500  2.31763900 -1.16854200
H  -0.74148600 -0.19724100 -1.91999400
H  -0.06566100 -0.85128200 -0.22678900
H  -2.64069100  0.87524200 -0.48125800
H  -1.72679900  0.30452200  1.01125100

