%chk=ts_freq.chk
%nprocshared=4
#P Opt=(TS,CalcAll,NoEigenTest,NoMicro,MaxCycles=150) Freq External='../../../../../production/external/horm.sh'

External--CalcAll initial TS guess: rxn3246

0 1
O   1.36902330 -1.12051570  0.22391073
C   1.48345170  0.08019158  0.57120630
C   0.57535010  1.09485910  0.18601076
C  -0.38152690 -0.65312270 -0.94510310
C  -1.28137850 -0.20206949  0.15654787
O  -0.82270100  1.09419930  0.41474170
H   2.33178500  0.34539944  1.20992900
H   0.90069175  2.12939520  0.21685448
H  -0.24904613 -1.71745310 -1.12863520
H  -0.41025344 -0.04843191 -1.85292880
H  -1.17393800 -0.85698820  1.04770200
H  -2.34145800 -0.14546353 -0.10023579

