%chk=ts_freq.chk
%nprocshared=4
#P wB97X/6-31G(d) opt(ts,calcfc,noeigentest,nomicro,maxcycles=150) freq

ReactOT exact pure Gaussian calcfc TS opt+freq: rxn7361

0 1
O   1.06159500  0.67205040 -1.28336100
C   1.85687630 -0.26486215 -0.06133448
C   0.99261800 -0.72363526  0.93139850
C  -0.20871290 -0.69417640  1.16980850
C  -1.55545720 -0.48986536  1.04750810
C  -1.51142610  0.36851060 -0.67633910
O  -2.53618650  0.67601230 -1.11271580
H   1.24523470  1.59236090 -1.02594600
H   2.61583280  0.45524997  0.26543516
H   2.27333280 -0.99309160 -0.75254303
H  -2.03932570  0.24345260  1.68958600
H  -2.21669270 -1.32213820  0.82263540
H   0.02231149  0.48013222 -1.01413240

