%chk=ts_freq.chk
%nprocshared=4
#P wB97X/6-31G(d) opt(ts,calcfc,noeigentest,nomicro,maxcycles=150) freq

GSM eqV2 pure Gaussian calcfc TS opt+freq: rxn2646

0 1
C  -1.51979200  1.04342700 -0.15100500
C  -1.37254600 -0.42880500  0.21474800
C   0.07503500 -0.85056300  0.51213500
C   0.97878600 -0.66505600 -0.68245300
C   1.78094100  0.55477500 -0.86391100
O   2.38733400 -0.92618200 -0.44476400
H  -0.99783000  1.28145100 -1.08771900
H  -1.09797200  1.68922000  0.62279200
H  -2.57474000  1.31130400 -0.28555000
H  -1.76213400 -1.05498600 -0.59732100
H  -1.98487800 -0.65446300  1.09170000
H   0.09930700 -1.90881600  0.80927000
H   0.47295400 -0.25627000  1.34709100
H   0.67067100 -1.25204300 -1.54588200
H   2.10130700  0.71093300 -1.90318900
H   2.50403300 -0.05421200  0.26250500

