%chk=ts_freq.chk
%nprocshared=4
#P wB97X/6-31G(d) opt(ts,calcfc,noeigentest,nomicro,maxcycles=150) freq

GSM eqV2 pure Gaussian calcfc TS opt+freq: rxn4885

0 1
C   1.54019600  0.25172600  0.29755300
C   0.61245700  0.16482900 -0.89428300
O  -0.15181600 -1.05528600 -0.91281400
C  -1.38743200 -0.51486900 -1.19248600
N  -2.53821800 -1.03186500 -1.19856100
C  -0.61049000  1.04185500 -0.75238800
N  -0.70038600  2.36604300 -0.96887700
H   0.96227300  0.20398500  1.22534700
H   2.10255900  1.19005200  0.26688000
H   2.25163600 -0.58056000  0.27738000
H   1.18399900  0.22018000 -1.83613400
H  -2.51807800 -1.98296800 -0.83174700
H  -1.18647700  0.38126300 -1.98078300
H  -0.43497900  2.81333200 -1.84191100
H  -1.43141600  2.86147900 -0.47507000

