%chk=ts_freq.chk
%nprocshared=4
#P wB97X/6-31G(d) opt(ts,calcall,noeigentest,nomicro,maxcycles=150) freq

ReactOT exact pure Gaussian calcall TS opt+freq: rxn8902

0 1
C  -1.72528420  0.53446590 -0.06123052
C  -0.93444220 -0.73308533 -0.35416147
C   0.26676953 -0.73432314 -1.23786540
C   1.12036900  0.51987165 -1.05782700
C   1.37111470  0.84318036  0.40279934
C   0.88496570 -0.04801655  1.27295710
C   0.15944423 -1.18469300  0.62221175
H  -2.31124020  0.80890834 -0.94721560
H  -2.42783360  0.36235964  0.77362070
H  -1.09521090  1.39041730  0.20697851
H  -1.62465060 -1.55187420 -0.56417110
H   0.88946474 -1.66552790 -0.16346450
H   0.57627940  1.32899620 -1.56511620
H   2.06292580  0.39704219 -1.60893690
H   1.91020510  1.74854220  0.68503110
H   1.01438530  0.01072944  2.35031080
H  -0.13726208 -2.02699280  1.24607940

