%chk=ts_freq.chk
%nprocshared=4
#P wB97X/6-31G(d) opt(ts,calcall,noeigentest,nomicro,maxcycles=150) freq

GSM eqV2 pure Gaussian calcall TS opt+freq: rxn7317

0 1
C  -1.91113700 -0.09814600  0.55938800
C  -1.20005800 -0.54047100 -0.70418200
C  -0.06938000  0.24263700 -1.31992600
C   0.62528200  1.27368800 -0.44306500
C   0.96498500  0.57091600  0.84868800
C   1.05057100 -0.89409400  0.52001300
C   0.19395200 -1.11383800 -0.71133900
H  -2.66710800  0.66093700  0.33315900
H  -2.41262000 -0.94294500  1.04383000
H  -1.21892300  0.33462500  1.29895700
H  -1.86203000 -0.99306000 -1.43848500
H  -0.05500400  0.38470700 -2.39710100
H   1.57251800  1.56132200 -0.92088900
H   0.07136500  2.20562600 -0.28082000
H   2.95927700  1.29892900  1.51892500
H   2.03353900  1.12148200  1.66788400
H   0.81862000 -1.53155900  1.37792300
H   2.09668800 -1.11480200  0.25886800
H   0.40864400 -1.97402700 -1.34116100

