%chk=ts_freq.chk
%mem=6GB
%nprocshared=4
#P opt(ts,calcall,noeigentest,nomicro,maxcycles=150) freq External='../../../../../production/external/horm.sh'

ReactOT exact C eqV2-EFH calcall TS opt+freq: rxn7578

0 1
C  -2.46455070  0.10113882  0.74444330
C  -1.27579690  0.89460470  0.17487739
C  -0.69281554  0.31566277 -1.10098210
C   0.73496133  0.65968394 -1.26549220
C   0.82182777 -0.74324260 -0.64579560
C   1.54902710 -0.87178560  0.66134226
O   2.97872800 -0.79200420  0.43779546
H  -3.20779400 -0.07160881 -0.06069619
H  -2.94195410  0.63670300  1.56238560
H  -2.14684700 -0.87222140  1.12233570
H  -0.55862206  1.11738800  0.97751700
H  -1.62680590  1.88217190 -0.18740296
H  -0.32407883 -1.00615780 -0.61556095
H   1.12481280  0.74437064 -2.28006430
H   1.15606140  1.43206920 -0.59197885
H   1.12481890 -1.48843610 -1.38271100
H   1.21660130 -0.11802994  1.38099710
H   1.39658390 -1.85645390  1.10391340
H   3.13584110  0.03614734 -0.03492289

