%chk=ts_freq.chk
%nprocshared=4
#P wB97X/6-31G(d) opt(ts,calcfc,noeigentest,nomicro,maxcycles=150) freq

ReactOT exact pure Gaussian calcfc TS opt+freq: rxn8241

0 1
C   1.87665450  0.00451160  0.61460763
C   0.83897376 -0.22480614 -0.46673137
N  -0.05933375 -1.45761950 -0.38789110
C  -1.15161110  0.02170819  0.93768240
C  -0.58442855  0.23377113 -0.33865930
O  -1.40162840  1.74803670  0.06060217
C  -1.03252800 -0.78685015 -1.30585280
H   2.63313820 -0.77991980  0.56556636
H   2.37807300  0.97157156  0.46048987
H   1.46095310  0.00858457  1.62109890
H   1.25164440 -0.04604686 -1.46432850
H  -0.57523220  0.17552884  1.83484820
H  -2.15677760 -0.37710540  1.03347400
H  -0.71393496  2.31795700  0.43417270
H  -0.69490963 -0.67198926 -2.34231900
H  -2.06905270 -1.13733240 -1.25676000

