%chk=ts_freq.chk
%nprocshared=4
#P Opt=(TS,CalcAll,NoEigenTest,NoMicro,MaxCycles=150) Freq External='../../../../../production/external/horm.sh'

External--CalcAll initial TS guess: rxn6592

0 1
O  -1.79877400  0.08159100 -0.06058900
C  -1.54345000  0.00010100 -1.34909700
C  -0.30492000  0.03239200 -0.26667200
N   0.34446500 -1.12852100 -0.29035100
O   1.57463000 -0.84853400  0.26619300
C   1.60246600  0.42983200  0.68044700
C   0.44288500  1.05916600  0.40759400
H  -2.18820200 -0.77966200 -1.80418900
H   2.52457700  0.74490200  1.14697100
H   0.14779900  2.07852900  0.59905400

