%chk=ts_freq.chk
%nprocshared=4
#P wB97X/6-31G(d) opt(ts,calcall,noeigentest,nomicro,maxcycles=150) freq

ReactOT exact pure Gaussian calcall TS opt+freq: rxn1299

0 1
O   2.11996030 -0.63462360  1.27096960
N   1.53632660  0.51855560  0.78750010
C   0.40772584  0.25257897  0.23894207
C  -0.65986270  1.10503260 -0.33980715
N  -1.50467090  0.04996506 -0.04107461
C  -0.51559960 -0.89825210  0.03970936
H   2.93205430 -0.31616935  1.68405280
H  -0.21670255  0.28635058 -1.84495750
H  -0.90148410  2.15308260 -0.19763975
H  -2.48725750 -0.05467988 -0.28581774
H  -0.14097187 -0.56635610 -1.74042530
H  -0.56951810 -1.89548440  0.42854822

