%chk=ts_freq.chk
%nprocshared=4
#P Opt=(TS,CalcAll,NoEigenTest,NoMicro,MaxCycles=150) Freq External='../../../../../production/external/horm.sh'

External--CalcAll initial TS guess: rxn7016

0 1
C  -1.94981040  0.12036088  0.11089186
C  -0.54203624 -0.17673627  0.56634736
C   0.61649730  0.36403033 -0.05047589
C   1.89676200 -0.29782130  0.30864814
O   1.55320690 -1.42874530 -0.37970132
C   0.53385190  1.01057170 -1.32618900
N   0.44476795  1.56136390 -2.35443040
H  -2.32247110  1.03584030  0.60457420
H  -2.62486220 -0.69379830  0.38114430
H  -1.99190900  0.26515740 -0.97489995
H  -0.42603934 -0.36132514  1.63720190
H   0.06161470 -1.22354470  0.12153065
H   2.77523350  0.24121925 -0.06335156
H   1.97519410 -0.41657280  1.41870980

