%chk=ts_freq.chk
%nprocshared=4
#P Opt=(TS,CalcAll,NoEigenTest,NoMicro,MaxCycles=150) Freq External='../../../../../production/external/horm.sh'

External--CalcAll initial TS guess: rxn39

0 1
C  -1.90098800 -0.42869100 -0.46547900
N  -0.51441600 -0.52338400 -0.08989600
C   0.45043200  0.32050600 -0.19858300
N   1.50087300 -0.17367700  0.52040900
C   2.52149700  0.74009700  0.72941200
O   3.59293200  0.50768700  1.23470000
H  -2.52417800 -0.59484600  0.41795500
H  -2.15062400  0.55147800 -0.89038900
H  -2.14470500 -1.19983600 -1.20339500
H   0.45134600  1.26195700 -0.75216100
H   0.46665900 -0.95638400  0.76159800
H   2.27450300  1.75239900  0.34573400

