%chk=ts_freq.chk
%nprocshared=4
#P wB97X/6-31G(d) opt(ts,calcfc,noeigentest,nomicro,maxcycles=150) freq

GSM eqV2 pure Gaussian calcfc TS opt+freq: rxn3847

0 1
O  -1.72724600 -0.22294500 -0.47077000
C  -0.43496500 -0.08395400 -0.14740400
N   0.34970900 -1.10480700  0.10000800
N   1.56734300 -0.57036400  0.24833900
N   1.50599700  0.78379800  0.34361400
C   0.23786900  1.18911100  0.00950300
H  -1.92468200 -1.16903400 -0.52617100
H   2.27735100 -1.07666600  0.75822300
H   1.45037900  1.55535000 -0.52909200

