%chk=ts_freq.chk
%nprocshared=4
#P wB97X/6-31G(d) opt(ts,calcfc,noeigentest,nomicro,maxcycles=150) freq

ReactOT exact pure Gaussian calcfc TS opt+freq: rxn1639

0 1
C   1.60312460  0.50573176  0.44132504
C   0.35588494  0.35654390 -0.42097247
C  -0.07889727 -1.10698570 -0.59359753
C  -1.95433950 -0.22423574 -0.43793482
O  -1.16055020 -0.72016450  0.84429350
C  -0.96504490  0.61525524  0.27574380
H   1.47799490 -0.01011928  1.40257550
H   1.80521320  1.56477680  0.65257525
H   2.48459430  0.08833645 -0.06222162
H   0.44680200  0.88380957 -1.37445390
H   0.46774840 -1.85146100 -0.01504708
H  -0.33409518 -1.47477880 -1.58777890
H  -2.98012110 -0.04054315 -0.10502844
H  -1.16831450  1.41383460  0.98052180

