%chk=ts_freq.chk
%nprocshared=4
#P Opt=(TS,CalcAll,NoEigenTest,NoMicro,MaxCycles=150) Freq External='../../../../../production/external/horm.sh'

External--CalcAll initial TS guess: rxn1746

0 1
O   2.94521400 -0.21942100 -0.16495500
C   1.76588100  0.20694500  0.00255700
C   1.19230700 -1.15481900 -0.15254600
C  -0.72762500 -1.03185200  0.57860200
C  -1.08413500  0.20338600  0.11928500
O   1.18677200  1.26982300  0.14502400
H   1.01977900 -1.44317300 -1.18199300
H   1.54498600 -1.96370100  0.47886800
H  -1.10084500 -1.92886900  0.07298300
H  -0.50276000 -1.14198300  1.63075100
H  -1.13927000  1.08445600  0.74342700
H  -1.48072800  0.31635100 -0.88903400

