%chk=ts_freq.chk
%nprocshared=4
#P Opt=(TS,CalcAll,NoEigenTest,NoMicro,MaxCycles=150) Freq External='../../../../../production/external/horm.sh'

External--CalcAll initial TS guess: rxn3173

0 1
O  -1.68352700  1.05769600 -0.01388200
C  -1.28814900 -0.16886900  0.55240200
C   0.19158400 -0.40357700  0.28584100
O   0.49245500 -0.15200600 -1.08356700
C   1.05785600  0.75417400  0.52824400
O   2.27803500  0.64964400  0.10536500
H  -1.29298700  1.04519300 -0.90037500
H  -1.85417000 -1.01322200  0.13344000
H  -1.48716800 -0.13743600  1.62627900
H   0.53172800 -1.36985700  0.67167600
H   1.89098100  0.05595500 -0.77243300
H   0.74343200  1.70783500  0.96594700

