%chk=ts_freq.chk
%nprocshared=4
#P wB97X/6-31G(d) opt(ts,calcfc,noeigentest,nomicro,maxcycles=150) freq

GSM eqV2 pure Gaussian calcfc TS opt+freq: rxn4941

0 1
C  -1.17953800  1.37957500 -0.23455300
C  -0.22025000  0.60843400  0.68313300
C  -0.67279100 -0.86310100  0.43148000
O  -0.38446900 -1.81545300  1.42827700
N   1.08153200  0.89091800 -0.01626300
C   2.18443800  0.40563900  0.47534500
O   2.05364400 -0.36526600  1.48377400
H  -0.92778300  2.45201200 -0.29356500
H  -2.21803700  1.33462000  0.13201300
H  -1.17751500  0.96897600 -1.25471700
H   0.85599200 -0.09561800  1.63020200
H  -1.75557200 -0.84511200  0.26853600
H  -0.21890300 -1.24728900 -0.49049800
H  -0.39896400 -1.37252300  2.27958600
H   1.13236000  1.62343700 -0.69994600
H   3.15375900  0.68943000  0.08699900

