%chk=ts_freq.chk
%nprocshared=4
#P wB97X/6-31G(d) opt(ts,calcall,noeigentest,nomicro,maxcycles=150) freq

ReactOT exact pure Gaussian calcall TS opt+freq: rxn2912

0 1
C   1.71755160 -0.11235563  0.48816994
O   0.39605215 -0.11955491  1.01186990
C  -0.81184300  0.43202418  0.17600977
C  -0.48148110  1.74431010 -0.44863555
C  -1.08483270 -0.77530324 -0.63682130
C  -0.73193765 -1.50096930  0.59163760
H   2.30627630 -0.86829350  1.02171310
H   1.78163550 -0.29328787 -0.58292180
H   2.15439940  0.87919503  0.69400220
H  -1.36512790  2.07869100 -1.04654120
H  -0.29432440  2.51567530  0.31720203
H   0.37003866  1.72705450 -1.14199400
H  -2.11399250 -0.86347900 -0.95467440
H  -0.40097433 -1.03210220 -1.47019170
H   0.06494047 -2.23730090  0.63161410
H  -1.50638080 -1.57430350  1.34956150

