%chk=ts_freq.chk
%nprocshared=4
#P wB97X/6-31G(d) opt(ts,calcall,noeigentest,nomicro,maxcycles=150) freq

ReactOT exact pure Gaussian calcall TS opt+freq: rxn3898

0 1
C   2.18568520  0.59219850 -0.63014835
O   0.78201000  0.55030380 -0.42137128
C   0.19437674 -0.63327090 -0.37465918
C  -1.13640510 -0.79518765  0.08401511
C  -1.81127980  0.33587092  0.78783970
O  -2.36103500  1.31010450 -0.09731341
H   2.45321200 -0.04431153 -1.47497550
H   2.47697570  1.61806010 -0.79926246
H   2.70414570  0.19702017  0.25447956
H   1.10277300 -1.23299120  1.01649390
H   0.63367605 -1.43146200 -0.98366165
H  -1.71843850 -1.56457110 -0.40182784
H  -0.05356024 -1.23724410  0.87660510
H  -2.66720220 -0.02973649  1.36835110
H  -1.12686010  0.80413187  1.49648830
H  -1.65807300  1.56108520 -0.70105310

