%chk=ts_freq.chk
%mem=6GB
%nprocshared=4
#P opt(ts,calcall,noeigentest,nomicro,maxcycles=150) freq External='../../../../../production/external/horm.sh'

GSM eqV2 C eqV2-EFH calcall TS opt+freq: rxn8151

0 1
C  -1.32870600  0.44388700  0.85448700
C   0.22562800 -0.08383900  1.52733400
O   0.38602800 -1.38533300  1.64420200
C   0.62436600 -1.89973000  0.37645600
C   0.39414600 -0.92258300 -0.71653700
C   0.43629300  0.31788400  0.15118000
C   0.94689400  1.66069200 -0.25232400
H  -1.45969400  1.49115600  1.13425600
H  -1.69354600  0.26510400 -0.17029000
H  -1.94358900 -0.18690700  1.50744400
H   0.36349800  0.51303900  2.42088300
H   0.97822000 -2.91733900  0.36734700
H   1.16768200 -0.91549700 -1.50562500
H  -0.58076100 -0.98064200 -1.29548400
H   0.30348400  2.14236400 -1.00196400
H   1.04576400  2.33421000  0.60559000
H   1.93725100  1.54153900 -0.70718800

