%chk=ts_freq.chk
%nprocshared=4
#P wB97X/6-31G(d) opt(ts,calcall,noeigentest,nomicro,maxcycles=150) freq

ReactOT exact pure Gaussian calcall TS opt+freq: rxn5322

0 1
C   0.45063317  1.47868010 -0.32607055
C   0.50731254 -0.00572146 -0.26406336
O   1.22826180 -0.49805766  1.81923400
C  -0.69442030 -0.84168816 -0.58784145
N  -1.92274440 -0.27502263 -0.02958412
C   1.75647890 -0.61494110 -0.27428883
N   2.57574250 -1.03921540  0.44149673
H   1.39510620  1.93259430 -0.02566507
H  -0.34908020  1.82896200  0.33362252
H   0.19406429  1.80941920 -1.34089310
H   0.96273860 -0.57725950  2.73827530
H  -0.52243924 -1.84220000 -0.17915703
H  -0.72231480 -0.98764837 -1.68420240
H  -2.67831850 -0.94889640 -0.12030070
H  -2.18102050  0.58099550 -0.50056170

